 $contrl units=angs local=boys runtyp=makefp 
       mult=1 icharg=0 coord=cart icut=11 $end
 $system timlim=99999 mwords=200 $end
 $scf soscf=.f. dirscf=.t. diis=.t. CONV=1.0d-06 $end
 $basis gbasis=n31 ngauss=6 ndfunc=1 $end
 $DAMP IFTTYP(1)=2,0 IFTFIX(1)=1,1 thrsh=500.0 $end
 $MAKEFP POL=.t. DISP=.f. CHTR=.f. EXREP=.f. $end
 $data
 a_1070_18465
 C1
 C    6.0      60.92799664       38.67011547       68.71542454
 O    8.0      61.29347324       39.80226994       68.42079639
 C    6.0      58.14664364       40.03304482       69.32475567
 O    8.0      57.92691231       41.19220257       68.94053936
 C    6.0      59.09738064       41.69958115       71.62629604
 O    8.0      58.78597260       42.90006638       71.52025700
 N    7.0      60.35485744       41.28263474       71.56940937
 H    1.0      60.53035259       40.29243946       71.66326046
 CA   6.0      61.52470112       42.14438438       71.30641460
 HA   1.0      61.64502621       42.80457973       72.16535091
 CB   6.0      62.80934811       41.33771420       71.17579937
 HB1  1.0      63.48133564       41.84894085       70.48645496
 HB2  1.0      62.50478268       40.35590649       70.81332684
 CG   6.0      63.73159885       41.30740166       72.42096424
 HG1  1.0      64.03621197       42.33147621       72.63678074
 HG2  1.0      64.62519169       40.72716713       72.19093800
 CD   6.0      63.14261913       40.52836895       73.58352184
 HD1  1.0      64.01797771       40.26597023       74.17765141
 HD2  1.0      62.75273800       39.57274437       73.23297977
 NE   7.0      62.14528561       41.30785465       74.39296246
 HE   1.0      62.21021175       42.31506348       74.35530186
 CZ   6.0      61.21847630       40.72424412       75.17779827
 NH1  7.0      61.10662937       39.39373016       75.39641857
 HH11 1.0      61.84298992       38.76347542       75.11240482
 HH12 1.0      60.28724194       39.02701855       75.85926533
 NH2  7.0      60.33575535       41.43768787       75.73588848
 HH21 1.0      60.44833660       42.44131088       75.74859142
 HH22 1.0      59.61859226       41.07458591       76.34738445
 H000 1.0      60.23115139       39.13980561       69.39198701
 H000 1.0      61.38300111       42.84550479       70.49876977
 $end 
!comment atoms to be erased:
!polarization points to remove: