 $contrl units=angs local=boys runtyp=makefp 
       mult=1 icharg=0 coord=cart icut=11 $end
 $system timlim=99999 mwords=200 $end
 $scf soscf=.f. dirscf=.t. diis=.t. CONV=1.0d-06 $end
 $basis gbasis=n31 ngauss=6 ndfunc=1 $end
 $DAMP IFTTYP(1)=2,0 IFTFIX(1)=1,1 thrsh=500.0 $end
 $MAKEFP POL=.t. DISP=.f. CHTR=.f. EXREP=.f. $end
 $data
 a_181_2788
 C1
 C    6.0      68.16180706       61.40310764       56.68302536
 O    8.0      68.43974590       62.03369141       57.73389339
 N    7.0      68.86403561       61.70409203       55.60001373
 H    1.0      68.63323689       61.17655277       54.77023125
 CA   6.0      69.99055386       62.64675617       55.51421165
 HA   1.0      70.70966244       62.38488197       56.29035950
 CB   6.0      70.71887493       62.55300045       54.14327145
 HB1  1.0      71.54746532       63.25857162       54.08220291
 HB2  1.0      70.01193523       62.97209263       53.42724323
 HB3  1.0      71.17855549       61.58015251       53.96903515
 H000 1.0      67.32012294       60.72969377       56.63807529
 H000 1.0      69.73211499       63.66937822       55.74091054
 $end 
!comment atoms to be erased:
!polarization points to remove: