 $contrl units=angs local=boys runtyp=makefp 
       mult=1 icharg=0 coord=cart icut=11 $end
 $system timlim=99999 mwords=200 $end
 $scf soscf=.f. dirscf=.t. diis=.t. CONV=1.0d-06 $end
 $basis gbasis=n31 ngauss=6 ndfunc=1 $end
 $DAMP IFTTYP(1)=2,0 IFTFIX(1)=1,1 thrsh=500.0 $end
 $MAKEFP POL=.t. DISP=.f. CHTR=.f. EXREP=.f. $end
 $data
 a_338_5194
 C1
 C    6.0      83.27239990       52.51109123       81.00486755
 O    8.0      82.74961472       53.10101986       80.12405396
 N    7.0      82.80084610       51.38875961       81.57520294
 H    1.0      83.37181091       50.86414814       82.22244263
 CA   6.0      81.63881302       50.64923286       81.02886200
 HA   1.0      81.81125641       50.34386635       79.99681950
 CB   6.0      81.25694275       49.31982040       81.76288605
 HB1  1.0      81.08226776       49.50414658       82.82289505
 HB2  1.0      82.09945679       48.62905025       81.73004150
 HB3  1.0      80.45116425       48.78282070       81.26243591
 H000 1.0      84.16488816       52.94768410       81.42533190
 H000 1.0      80.73365050       51.23575856       81.05350576
 $end 
!comment atoms to be erased:
!polarization points to remove: