 $contrl units=angs local=boys runtyp=makefp 
       mult=1 icharg=0 coord=cart icut=11 $end
 $system timlim=99999 mwords=200 $end
 $scf soscf=.f. dirscf=.t. diis=.t. CONV=1.0d-06 $end
 $basis gbasis=n31 ngauss=6 ndfunc=1 $end
 $DAMP IFTTYP(1)=2,0 IFTFIX(1)=1,1 thrsh=500.0 $end
 $MAKEFP POL=.t. DISP=.f. CHTR=.f. EXREP=.f. $end
 $data
 a_370_6677
 C1
 C    6.0      70.56369305       56.62346363       88.36879730
 O    8.0      69.43672657       56.29997730       87.96995163
 C    6.0      69.54529285       58.48213673       91.16075516
 O    8.0      70.45277119       59.26525593       91.48174286
 C    6.0      67.33625889       60.35671711       92.73735046
 O    8.0      66.65594578       59.53600407       93.36912155
 C    6.0      66.53830051       63.58623505       94.47443008
 O    8.0      67.26945400       64.34729576       93.85828018
 C    6.0      63.84226322       65.48660278       96.31217957
 O    8.0      63.36769581       64.43573952       96.83185577
 C    6.0      61.90123081       68.60458851       97.35321045
 O    8.0      62.57374287       69.62409496       97.57106781
 C    6.0      59.05018330       70.42470455       97.81963348
 O    8.0      58.33691120       69.62005138       98.45977783
 C    6.0      57.38746643       73.59988689       98.67303848
 O    8.0      58.08863640       74.50763226       98.19938660
 C    6.0      54.36857700       75.42016506       99.33376312
 O    8.0      53.60690594       74.56151485       99.87426758
 C    6.0      52.30398655       78.32840443       99.49567795
 O    8.0      52.90365219       79.10130978       98.74673843
 C    6.0      49.35410976       80.06633759       99.98605728
 O    8.0      49.05743599       79.66979504      101.07732773
 C    6.0      47.02918530       82.36995697      100.32152176
 O    8.0      46.46238804       81.73555374       99.41305161
 C    6.0      44.08494473       84.17533875      100.95138550
 O    8.0      44.55091476       85.32419205      100.77999115
 C    6.0      41.74925804       85.26014328       99.05061722
 O    8.0      41.49191856       84.36199188       98.25908661
 C    6.0      43.61157894       87.00628281       96.72695160
 O    8.0      43.92801285       87.50129700       95.64012527
 C    6.0      46.46792412       85.71426392       96.16842270
 O    8.0      46.01750851       84.59487915       96.06313705
 C    6.0      49.16453838       84.60788727       94.69615936
 O    8.0      49.75263596       83.78574371       94.06534195
 C    6.0      51.43641472       83.39971542       96.70904160
 O    8.0      50.61422825       82.55470276       97.09405899
 C    6.0      54.64163780       82.24355698       98.15307617
 O    8.0      55.25649548       83.26385498       97.75032043
 C    6.0      56.95483685       79.53397274       98.05482864
 O    8.0      56.17032528       78.60373020       98.28451157
 C    6.0      59.96253490       77.74732113       97.09503174
 O    8.0      60.84341526       78.57517719       97.19100952
 C    6.0      61.60517216       74.42518711       96.61289215
 O    8.0      60.65250874       73.65976810       96.55433655
 C    6.0      64.72905636       72.46034145       95.87221146
 O    8.0      65.53497791       73.33756924       95.48658371
 C    6.0      66.49122715       69.28496838       95.16382217
 O    8.0      65.48517704       68.58108044       95.07766724
 C    6.0      69.40284252       67.27082729       93.89743805
 O    8.0      70.28733730       68.08306217       94.05389786
 C    6.0      71.06944561       64.11270618       92.69634247
 O    8.0      70.26048183       63.24017525       93.07064056
 C    6.0      72.92905331       62.56794453       89.92134094
 O    8.0      73.43778133       63.52418900       89.32836533
 C    6.0      74.23123837       60.53012371       87.61491776
 O    8.0      74.42228794       59.48440075       87.07775116
 C    6.0      74.73749638       62.10627079       84.87394333
 O    8.0      75.10706425       63.25207710       85.09553909
 N    7.0      75.32243252       61.37966633       83.96171570
 CD   6.0      75.16997814       60.02525330       83.73470306
 HD1  1.0      74.44151402       59.79875565       82.95614243
 HD2  1.0      74.85310078       59.43096638       84.59173203
 CG   6.0      76.54938221       59.60379601       83.28975677
 HG1  1.0      76.37054920       58.73092175       82.66189575
 HG2  1.0      77.13538647       59.41566944       84.18937683
 CB   6.0      77.16153622       60.69658279       82.48819351
 HB1  1.0      78.24020863       60.74616909       82.63679504
 HB2  1.0      76.94476604       60.52601814       81.43365860
 CA   6.0      76.55926228       61.86199188       83.29103470
 HA   1.0      77.33970165       62.09042549       84.01687622
 H000 1.0      71.06061547       57.46197395       87.90629600
 H000 1.0      76.33523502       62.66084247       82.60140551
 $end 
!comment atoms to be erased:
!polarization points to remove: