 $contrl units=angs local=boys runtyp=makefp 
       mult=1 icharg=0 coord=cart icut=11 $end
 $system timlim=99999 mwords=200 $end
 $scf soscf=.f. dirscf=.t. diis=.t. CONV=1.0d-06 $end
 $basis gbasis=n31 ngauss=6 ndfunc=1 $end
 $DAMP IFTTYP(1)=2,0 IFTFIX(1)=1,1 thrsh=500.0 $end
 $MAKEFP POL=.t. DISP=.f. CHTR=.f. EXREP=.f. $end
 $data
 a_399_7105
 C1
 C    6.0      76.23636723       63.01339149       82.29705811
 O    8.0      75.42235851       62.72331715       81.43394470
 C    6.0      77.04798222       65.51424503       80.33727646
 O    8.0      78.05442333       64.91162300       80.11749268
 N    7.0      76.32973194       66.23411179       79.42675114
 H    1.0      75.43821812       66.57785892       79.75407124
 CA   6.0      76.61450863       66.47493839       77.99145222
 HA   1.0      76.79681301       65.59652328       77.37237453
 CB   6.0      75.24709225       67.03149319       77.46407986
 HB1  1.0      74.90791798       67.79634476       78.16269398
 HB2  1.0      74.51392651       66.22893810       77.38363743
 HB3  1.0      75.45605183       67.35888481       76.44562244
 H000 1.0      76.34898249       64.06087841       82.06461920
 H000 1.0      77.31809368       67.27797958       77.83643019
 $end 
!comment atoms to be erased:
!polarization points to remove: