 $contrl units=angs local=boys runtyp=makefp 
       mult=1 icharg=0 coord=cart icut=11 $end
 $system timlim=99999 mwords=200 $end
 $scf soscf=.f. dirscf=.t. diis=.t. CONV=1.0d-06 $end
 $basis gbasis=n31 ngauss=6 ndfunc=1 $end
 $DAMP IFTTYP(1)=2,0 IFTFIX(1)=1,1 thrsh=500.0 $end
 $MAKEFP POL=.t. DISP=.f. CHTR=.f. EXREP=.f. $end
 $data
 bcl_360_5667
 C1
 MG   12.0      72.42621899       51.96305752       48.69128704
 CHA  6.0      69.26047802       52.82931328       47.59480953
 CHB  6.0      73.82689953       52.95663834       45.71089745
 HB   1.0      74.25285816       53.28863621       44.76179123
 CHC  6.0      75.54390430       51.37668610       50.04444599
 HC   1.0      76.52392864       51.05979443       50.40719986
 CHD  6.0      71.04299068       50.63795567       51.57528400
 HD   1.0      70.56807041       50.25613785       52.48144627
 NA   7.0      71.62775517       52.82361507       46.92065239
 C1A  6.0      70.31501293       53.19774151       46.67925835
 C2A  6.0      70.19710064       54.04080868       45.34434319
 H2A  1.0      69.32725430       53.67819786       44.79664326
 C3A  6.0      71.51110172       53.58259678       44.63383675
 H3A  1.0      71.95850849       54.42670822       44.10904408
 C4A  6.0      72.43476391       53.16115379       45.83815575
 CMA  6.0      71.40854359       52.51446724       43.49074841
 HMA1 1.0      72.26647854       52.62107372       42.82691002
 HMA2 1.0      71.49752140       51.48708820       43.84383678
 HMA3 1.0      70.57474613       52.66853333       42.80581474
 CAA  6.0      69.96455669       55.62317371       45.56144238
 HAA1 1.0      69.11241055       55.86531639       46.19652271
 HAA2 1.0      70.80858707       56.06768608       46.08881474
 CBA  6.0      69.63486195       56.40075207       44.29507732
 HBA1 1.0      70.49124241       56.41126633       43.62082958
 HBA2 1.0      68.91519070       55.81537724       43.72280121
 CGA  6.0      69.25060749       57.85078526       44.40325260
 O1A  8.0      68.03369045       58.16609859       44.38380241
 O2A  8.0      70.19552708       58.60300064       45.06716728
 NB   7.0      74.46143627       52.11253643       47.93664455
 C1B  6.0      74.83789921       52.54873276       46.70584679
 C2B  6.0      76.26715183       52.69776344       46.61847591
 C3B  6.0      76.84446812       52.32173443       47.91124344
 C4B  6.0      75.62757015       51.95332527       48.74799252
 CMB  6.0      77.01138973       53.27708721       45.43804646
 HMB1 1.0      77.82662868       52.64027596       45.09462357
 HMB2 1.0      76.37308598       53.57178211       44.60508347
 HMB3 1.0      77.48264790       54.19971466       45.77681541
 CAB  6.0      78.27754498       52.31699944       48.40756416
 OBB  8.0      78.51757526       52.40512371       49.57795143
 CBB  6.0      79.55057621       52.37872124       47.46630192
 HBB1 1.0      80.41238785       52.31732845       48.13083649
 HBB2 1.0      79.59767818       51.49881363       46.82470798
 HBB3 1.0      79.55605030       53.33630085       46.94561958
 NC   7.0      73.17659855       51.08565807       50.46944618
 C1C  6.0      74.46739674       50.98883629       50.82132816
 C2C  6.0      74.68543530       50.37004471       52.17187405
 H2C  1.0      75.32188892       51.12922192       52.62649536
 C3C  6.0      73.24462414       50.31808853       52.76340961
 H3C  1.0      72.96761990       49.39346313       53.26981068
 C4C  6.0      72.40585804       50.64848423       51.51992321
 CMC  6.0      75.49665928       49.00480747       52.23846912
 HMC1 1.0      76.54519558       49.23806667       52.05339432
 HMC2 1.0      75.55175304       48.66590977       53.27297688
 HMC3 1.0      75.05819798       48.22714329       51.61309242
 CAC  6.0      73.11334133       51.37282848       53.96438122
 HAC1 1.0      73.51541042       52.29824066       53.55200768
 HAC2 1.0      72.05868244       51.58068180       54.14488792
 CBC  6.0      73.71716976       51.06329441       55.40283203
 HBC1 1.0      74.76085186       50.75198650       55.35905361
 HBC2 1.0      73.58473301       51.90361023       56.08432293
 HBC3 1.0      73.25214863       50.25544643       55.96784115
 ND   7.0      70.54491520       51.68480396       49.43976879
 C1D  6.0      70.09943485       51.10619545       50.64455032
 C2D  6.0      68.65417004       51.08017445       50.73482037
 C3D  6.0      68.23219776       51.68242455       49.58953857
 C4D  6.0      69.40543652       52.08308697       48.80217552
 CMD  6.0      67.80241489       50.64119816       51.87725067
 HMD1 1.0      66.77737713       50.46615601       51.55053139
 HMD2 1.0      68.29137325       49.78571415       52.34326839
 HMD3 1.0      67.66187191       51.45165920       52.59244919
 CAD  6.0      67.13402271       52.23097801       48.82052422
 OBD  8.0      65.94414234       52.36549854       49.12088871
 CBD  6.0      67.75523663       52.99991608       47.51762867
 HBD  1.0      67.66211033       54.08545494       47.54964828
 CGD  6.0      67.10374355       52.39305973       46.24542713
 O1D  8.0      66.98922634       51.17131233       46.04638577
 O2D  8.0      66.05675220       53.23709965       45.86355209
 CED  6.0      66.05575085       53.86866093       44.53522682
 HED1 1.0      65.87998867       53.19630146       43.69549751
 HED2 1.0      65.11546612       54.41995144       44.54349041
 HED3 1.0      66.89571857       54.55000401       44.39990520
 C1   6.0      70.75414181       59.61210251       44.21307087
 H11  1.0      70.79757214       59.27799702       43.17644596
 H12  1.0      70.10696888       60.47453403       44.05344009
 C2   6.0      72.05785275       59.95448112       44.76969242
 H21  1.0      72.78261662       59.25045967       44.36081886
 C3   6.0      72.46512890       60.90759754       45.62309265
 C4   6.0      71.61464214       61.98317051       46.37843132
 H41  1.0      71.82821751       61.81530476       47.43403912
 H42  1.0      71.71170712       63.00464630       46.01065159
 H43  1.0      70.53398609       61.86065674       46.30585194
 C5   6.0      73.95151615       61.00132942       46.10583305
 H51  1.0      74.00130749       60.84460735       47.18335629
 H52  1.0      74.50912952       60.17743587       45.66043854
 C6   6.0      74.88976002       62.27280140       45.84704399
 H61  1.0      74.83999729       62.40111351       44.76576805
 H62  1.0      74.35048580       63.18367958       46.10702038
 C7   6.0      76.40250683       62.16128349       46.43596649
 H71  1.0      76.95868969       62.96210766       45.94868660
 H72  1.0      76.81445599       61.24032497       46.02336884
 C8   6.0      76.72000408       62.04545021       48.02672386
 H81  1.0      76.50531292       61.07321262       48.47030163
 C9   6.0      75.94575405       63.19712639       48.72504711
 H91  1.0      75.99606037       64.14356232       48.18669319
 H92  1.0      74.91778851       62.84941673       48.82738113
 H93  1.0      76.39205456       63.34733009       49.70808983
 C10  6.0      78.26846600       62.19260693       48.37615013
 H101 1.0      78.60225201       63.20275307       48.13887596
 H102 1.0      78.46332073       62.20414162       49.44852829
 C11  6.0      79.32150364       61.30681038       47.60433674
 H111 1.0      78.93868923       60.29013634       47.69341946
 H112 1.0      79.31215763       61.58108711       46.54945374
 C12  6.0      80.76496124       61.37868881       48.17582607
 H121 1.0      81.06134415       62.42517948       48.10432434
 H122 1.0      80.78920364       61.05977058       49.21784401
 C13  6.0      81.97731018       60.51620960       47.50506878
 H131 1.0      81.60890579       59.49282169       47.43387699
 C14  6.0      83.21929932       60.26895046       48.42816830
 H141 1.0      84.10455704       59.75896358       48.04825306
 H142 1.0      83.53040695       61.24996662       48.78723621
 H143 1.0      82.97756195       59.75319386       49.35750008
 C15  6.0      82.47913361       60.89785576       46.04681492
 H151 1.0      83.17581177       60.21237850       45.56425571
 H152 1.0      81.62685394       60.69375515       45.39870262
 C16  6.0      82.97307968       62.32732773       45.77412128
 H161 1.0      82.22940445       62.96760082       46.24855042
 H162 1.0      83.89701843       62.44300842       46.34076595
 C17  6.0      83.16366196       62.79326439       44.31983471
 H171 1.0      83.99875641       62.20709324       43.93627167
 H172 1.0      82.23979950       62.44745255       43.85613918
 C18  6.0      83.43315125       64.24554825       43.97140026
 H181 1.0      82.58903503       64.87585545       44.25119400
 C19  6.0      83.63058090       64.43594456       42.36608505
 H191 1.0      83.71774673       65.48615932       42.08759785
 H192 1.0      84.40231323       63.83826733       41.88101292
 H193 1.0      82.67774582       64.09245014       41.96332455
 C20  6.0      84.66636658       64.88879204       44.66143608
 H201 1.0      84.71115112       65.85318565       44.15544510
 H202 1.0      84.60887909       64.94636536       45.74839592
 H203 1.0      85.66928864       64.52132225       44.44413662
 $end 
!comment atoms to be erased:
!polarization points to remove: