 $contrl units=angs local=boys runtyp=makefp 
       mult=1 icharg=0 coord=cart icut=11 $end
 $system timlim=99999 mwords=200 $end
 $scf soscf=.f. dirscf=.t. diis=.t. CONV=1.0d-06 $end
 $basis gbasis=n31 ngauss=6 ndfunc=1 $end
 $DAMP IFTTYP(1)=2,0 IFTFIX(1)=1,1 thrsh=500.0 $end
 $MAKEFP POL=.t. DISP=.f. CHTR=.f. EXREP=.f. $end
 $data
 bcl_365_6367
 C1
 MG   12.0      76.80487156       61.36279106       59.22611237
 CHA  6.0      74.95747089       58.79025459       60.53014278
 CHB  6.0      73.90915394       62.47846127       57.57893085
 HB   1.0      72.98015118       62.95468330       57.25858688
 CHC  6.0      78.60325336       63.93128395       57.87009716
 HC   1.0      79.17665958       64.66411591       57.29858875
 CHD  6.0      79.73746777       60.15737534       60.81707954
 HD   1.0      80.58080673       59.61755753       61.25280380
 NA   7.0      74.66036320       60.79448700       59.11668301
 C1A  6.0      74.13301945       59.66474533       59.82758522
 C2A  6.0      72.58697033       59.66559410       59.67014790
 H2A  1.0      72.23553181       58.67886066       59.36856270
 C3A  6.0      72.37601757       60.64852238       58.38516712
 H3A  1.0      71.57130718       61.35305882       58.59531403
 C4A  6.0      73.74079227       61.29769325       58.27274323
 CMA  6.0      71.94145679       59.85902309       57.09038258
 HMA1 1.0      72.19820499       60.55443764       56.29127502
 HMA2 1.0      72.56341457       58.97251606       56.96642876
 HMA3 1.0      70.87828159       59.62001324       57.11553097
 CAA  6.0      71.67386532       59.97642517       60.90296745
 HAA1 1.0      71.84746265       59.21469688       61.66306019
 HAA2 1.0      71.94192410       60.98969936       61.20216846
 CBA  6.0      70.10809422       59.97268200       60.73293686
 HBA1 1.0      69.73454952       60.33147335       61.69201374
 HBA2 1.0      69.68951702       60.59911251       59.94523048
 CGA  6.0      69.28796291       58.64336014       60.74666977
 O1A  8.0      68.24998379       58.50303650       61.47747517
 O2A  8.0      69.39730167       58.08904171       59.56141472
 NB   7.0      76.30952358       63.10803413       58.01044464
 C1B  6.0      75.10900021       63.37537289       57.41918087
 C2B  6.0      75.13839245       64.68583584       56.75155163
 C3B  6.0      76.41952038       65.24082661       57.11484909
 C4B  6.0      77.21387386       64.06598568       57.65936375
 CMB  6.0      73.92588139       65.28669834       56.00743771
 HMB1 1.0      73.55782032       64.48585033       55.36613464
 HMB2 1.0      73.15474987       65.60614586       56.70844078
 HMB3 1.0      74.09727573       66.04443550       55.24287224
 CAB  6.0      76.98173046       66.72695160       56.94904327
 OBB  8.0      78.06897640       67.07615376       57.31827259
 CBB  6.0      76.11925602       67.85612583       56.22744560
 HBB1 1.0      76.54935360       68.85442257       56.14660263
 HBB2 1.0      75.95533848       67.55305767       55.19333839
 HBB3 1.0      75.23229122       67.95735836       56.85285568
 NC   7.0      78.90108585       61.88647747       59.20110703
 C1C  6.0      79.40169811       62.90271759       58.44213963
 C2C  6.0      80.96914291       62.91120052       58.47330570
 H2C  1.0      81.31288528       63.86862755       58.86481285
 C3C  6.0      81.33390427       61.76896095       59.49513912
 H3C  1.0      81.66177750       60.91260910       58.90584946
 C4C  6.0      79.94312763       61.29075050       59.92081165
 CMC  6.0      81.64766312       62.96179771       57.08078384
 HMC1 1.0      81.67947769       63.97502422       56.68020725
 HMC2 1.0      82.70935059       62.71552086       57.09726810
 HMC3 1.0      81.18009567       62.23615646       56.41524792
 CAC  6.0      82.39665985       62.17774868       60.59728146
 HAC1 1.0      82.10700989       63.15498352       60.98354816
 HAC2 1.0      82.24496841       61.56352520       61.48487568
 CBC  6.0      83.93545151       62.04511166       60.25313854
 HBC1 1.0      84.50613022       62.48587132       61.07054710
 HBC2 1.0      84.22632217       60.99715710       60.18038273
 HBC3 1.0      84.16172028       62.65687943       59.37983990
 ND   7.0      77.29792118       59.89835262       60.53477287
 C1D  6.0      78.51028919       59.50795174       61.15202427
 C2D  6.0      78.21718693       58.31548214       61.93948746
 C3D  6.0      76.86872959       57.97205448       61.69548512
 C4D  6.0      76.36148930       58.96008968       60.82206249
 CMD  6.0      79.21897411       57.66261578       62.87776470
 HMD1 1.0      78.76378536       56.69660091       63.09621334
 HMD2 1.0      80.21593094       57.51196384       62.46367455
 HMD3 1.0      79.39531803       58.18983555       63.81534100
 CAD  6.0      75.90641499       57.04672813       62.05583096
 OBD  8.0      76.05926037       56.03551865       62.64549732
 CBD  6.0      74.54819202       57.44494438       61.33157253
 HBD  1.0      73.77421856       57.90431976       61.94642544
 CGD  6.0      73.86998653       56.28456116       60.52323341
 O1D  8.0      72.96629429       55.63895226       60.93621731
 O2D  8.0      73.98110867       56.45540714       59.19025421
 CED  6.0      74.41415310       55.18574715       58.51614952
 HED1 1.0      75.33084393       54.78815079       58.95170212
 HED2 1.0      73.63512516       54.42490578       58.46788883
 HED3 1.0      74.59903240       55.32495975       57.45100498
 C1   6.0      69.69945431       56.69376850       59.53091621
 H11  1.0      70.16971111       56.22243881       60.39393425
 H12  1.0      68.68044376       56.30698204       59.54199314
 C2   6.0      70.40197849       56.40685081       58.34158897
 H21  1.0      70.91825962       57.26267338       57.90670395
 C3   6.0      70.51384449       55.21498680       57.58849144
 C4   6.0      70.00041485       53.91375065       58.18035126
 H41  1.0      68.91051769       53.91543865       58.16553593
 H42  1.0      70.31849384       53.06664944       57.57260799
 H43  1.0      70.37123203       53.76473427       59.19444561
 C5   6.0      71.25330448       55.22766590       56.24366283
 H51  1.0      72.09283352       55.90510845       56.39976978
 H52  1.0      71.79838657       54.28853989       56.14859104
 C6   6.0      70.41634083       55.66328526       54.96401787
 H61  1.0      69.51346874       55.07174969       54.81240749
 H62  1.0      70.10390759       56.69461727       55.12784481
 C7   6.0      71.17470264       55.61265469       53.55319977
 H71  1.0      71.89301968       56.43215656       53.57607841
 H72  1.0      71.75735950       54.69480991       53.63166809
 C8   6.0      70.23713589       55.64321518       52.26490021
 H81  1.0      69.63820934       54.74606037       52.42143631
 C9   6.0      69.17316914       56.87053680       52.12715149
 H91  1.0      68.49256039       56.75675392       52.97090054
 H92  1.0      69.76088047       57.78851509       52.12210178
 H93  1.0      68.56582165       56.89244747       51.22231483
 C10  6.0      70.92733860       55.35018921       50.85861206
 H101 1.0      71.35180950       54.34633732       50.87303162
 H102 1.0      70.04014492       55.20200253       50.24295807
 C11  6.0      71.92381382       56.41066074       50.24198532
 H111 1.0      71.45494938       57.37050533       50.02527714
 H112 1.0      72.65922070       56.61034584       51.02134228
 C12  6.0      72.63142109       55.91075420       48.94452572
 H121 1.0      72.99443722       54.89276886       49.08604622
 H122 1.0      71.86158657       55.86124897       48.17446232
 C13  6.0      73.81216526       56.81103230       48.51832390
 H131 1.0      73.53442669       57.85430431       48.66848469
 C14  6.0      74.08547878       56.81702614       46.97534561
 H141 1.0      74.49483395       55.82488537       46.78514004
 H142 1.0      73.25370312       56.99290752       46.29319191
 H143 1.0      74.90003109       57.53606796       46.88835621
 C15  6.0      75.12850285       56.58396721       49.39457417
 H151 1.0      74.90885258       56.37774467       50.44210434
 H152 1.0      75.55141926       55.65465450       49.01297569
 C16  6.0      76.24416828       57.68138885       49.30943012
 H161 1.0      76.35217190       58.17891121       48.34563255
 H162 1.0      75.92385769       58.50783825       49.94384766
 C17  6.0      77.73655415       57.35686779       49.75124836
 H171 1.0      78.19798946       58.34003925       49.84372139
 H172 1.0      77.66015530       56.99581623       50.77687263
 C18  6.0      78.73984814       56.33537292       48.95995140
 H181 1.0      78.35161686       55.31802654       49.00877476
 C19  6.0      80.03541946       56.21448994       49.80613232
 H191 1.0      80.56909561       57.16489315       49.81041431
 H192 1.0      79.87929821       55.95759869       50.85386276
 H193 1.0      80.67686081       55.40924072       49.44803715
 C20  6.0      78.97240162       56.78164005       47.48054028
 H201 1.0      79.56937313       57.69124508       47.54648209
 H202 1.0      79.61433887       56.05504036       46.98245525
 H203 1.0      78.02855968       57.03311920       46.99679375
 $end 
!comment atoms to be erased:
!polarization points to remove: