 $contrl units=angs local=boys runtyp=makefp 
       mult=1 icharg=0 coord=cart icut=11 $end
 $system timlim=99999 mwords=200 $end
 $scf soscf=.f. dirscf=.t. diis=.t. CONV=1.0d-06 $end
 $basis gbasis=n31 ngauss=6 ndfunc=1 $end
 $DAMP IFTTYP(1)=2,0 IFTFIX(1)=1,1 thrsh=500.0 $end
 $MAKEFP POL=.t. DISP=.f. CHTR=.f. EXREP=.f. $end
 $data
 bcl_364_6227
 C1
 MG   12.0      84.02547836       68.76688480       50.20058155
 CHA  6.0      87.50398636       68.90661716       50.13481617
 CHB  6.0      84.00121689       68.37220669       46.81148529
 HB   1.0      83.97443771       68.21329594       45.73144436
 CHC  6.0      80.63716888       68.47110271       50.35267353
 HC   1.0      79.54729557       68.52134228       50.30666828
 CHD  6.0      84.12502289       69.57245350       53.66438866
 HD   1.0      84.15084839       69.85200405       54.71968651
 NA   7.0      85.62637329       68.67334843       48.67036343
 C1A  6.0      86.95810318       68.60691547       48.85482788
 C2A  6.0      87.70723343       68.22096348       47.55408287
 H2A  1.0      88.51047516       68.95512104       47.49154568
 C3A  6.0      86.58437729       68.45543385       46.45983696
 H3A  1.0      86.57419205       67.61256218       45.76878071
 C4A  6.0      85.33926010       68.49256039       47.35641003
 CMA  6.0      86.77970886       69.71676350       45.56018353
 HMA1 1.0      87.01452255       70.65527439       46.06233597
 HMA2 1.0      87.71802902       69.57891941       45.02291203
 HMA3 1.0      85.94985962       69.86048222       44.86824989
 CAA  6.0      88.35639954       66.82019711       47.61603832
 HAA1 1.0      88.77941132       66.66597843       46.62337780
 HAA2 1.0      89.25647736       66.82358742       48.23080063
 CBA  6.0      87.61177063       65.49010277       47.97166824
 HBA1 1.0      87.22099304       65.57758331       48.98544788
 HBA2 1.0      86.61106110       65.50419331       47.53979683
 CGA  6.0      88.27825546       64.05802727       47.77742863
 O1A  8.0      88.64467621       63.69013786       46.72931671
 O2A  8.0      87.52578735       63.19770813       48.50494862
 NB   7.0      82.52559662       68.31031322       48.81838322
 C1B  6.0      82.72953033       68.21861744       47.47975349
 C2B  6.0      81.44281387       67.79259205       46.84830666
 C3B  6.0      80.59436798       67.51660824       47.97392368
 C4B  6.0      81.21503830       68.09269428       49.11056042
 CMB  6.0      81.20275497       67.72037983       45.36501408
 HMB1 1.0      81.19970322       66.65914536       45.11629581
 HMB2 1.0      80.26885986       68.20321560       45.07729053
 HMB3 1.0      81.97511673       68.19767475       44.76188660
 CAB  6.0      79.22005177       66.79539204       47.94809341
 OBB  8.0      78.50677013       66.57626152       48.93112659
 CBB  6.0      78.67362499       66.24235630       46.62137032
 HBB1 1.0      78.24534893       67.01768398       45.98610878
 HBB2 1.0      79.44515705       65.58179379       46.22580051
 HBB3 1.0      77.80891895       65.59555054       46.76982880
 NC   7.0      82.50370026       69.15017605       51.76956177
 C1C  6.0      81.16443634       68.88323307       51.59905434
 C2C  6.0      80.31713486       69.20554638       52.93954849
 H2C  1.0      79.78489399       68.31648350       53.27775478
 C3C  6.0      81.44763947       69.59907055       53.92170906
 H3C  1.0      81.48132324       70.67910671       54.06489849
 C4C  6.0      82.81002045       69.29717541       53.08613777
 CMC  6.0      79.20960903       70.36225796       52.72322178
 HMC1 1.0      78.80963802       70.63796520       53.69898796
 HMC2 1.0      79.69971180       71.22073650       52.26397514
 HMC3 1.0      78.30141544       70.07791042       52.19177246
 CAC  6.0      81.31315231       69.06734943       55.39419174
 HAC1 1.0      81.96763992       69.49245930       56.15512848
 HAC2 1.0      80.33651352       69.38668728       55.75794220
 CBC  6.0      81.30661011       67.52545834       55.66194057
 HBC1 1.0      81.70335770       67.36812592       56.66491032
 HBC2 1.0      80.28974533       67.13449001       55.69702148
 HBC3 1.0      81.85861588       66.86743259       54.99084473
 ND   7.0      85.46304703       69.08339977       51.67379856
 C1D  6.0      85.34929276       69.36420918       53.06871891
 C2D  6.0      86.68958664       69.48421955       53.63966465
 C3D  6.0      87.58049011       69.27003384       52.51096725
 C4D  6.0      86.76134109       69.10237789       51.32899761
 CMD  6.0      87.04238892       69.50348377       55.16086578
 HMD1 1.0      86.48817062       68.69565487       55.63872337
 HMD2 1.0      88.12089920       69.40248966       55.28223515
 HMD3 1.0      86.76319122       70.45293331       55.61769009
 CAD  6.0      88.95833969       69.12259579       52.15815544
 OBD  8.0      89.96816635       69.27283764       52.86094189
 CBD  6.0      88.96892548       68.80650997       50.60657978
 HBD  1.0      89.28936005       67.78564930       50.39860249
 CGD  6.0      90.04001617       69.61848736       49.81646538
 O1D  8.0      91.25917435       69.41788197       49.80447769
 O2D  8.0      89.67121124       70.92705250       49.78153706
 CED  6.0      89.77937698       71.58854008       48.43520164
 HED1 1.0      90.80636978       71.50406361       48.07990551
 HED2 1.0      89.15704727       71.31654263       47.58265495
 HED3 1.0      89.70405579       72.67183781       48.52942467
 C1   6.0      88.37848663       62.21421242       49.27497387
 H11  1.0      89.05389786       61.66909695       48.61561298
 H12  1.0      88.87107849       62.78963089       50.05876541
 C2   6.0      87.45466232       61.25035286       49.96944427
 H21  1.0      86.40748978       61.54603004       50.03355503
 C3   6.0      87.67425537       60.06440639       50.58716297
 C4   6.0      89.03699875       59.35026646       50.53037643
 H41  1.0      88.87075424       58.40047836       50.02207756
 H42  1.0      89.85923767       59.80497360       49.97786999
 H43  1.0      89.42012787       59.36307430       51.55073643
 C5   6.0      86.62563324       59.37430859       51.49928570
 H51  1.0      85.63737869       59.72106934       51.19729519
 H52  1.0      86.54958725       58.30582619       51.29761696
 C6   6.0      86.82151794       59.50088978       52.96677589
 H61  1.0      86.16594315       58.78632545       53.46446991
 H62  1.0      87.81274796       59.08874035       53.15571308
 C7   6.0      86.50388718       60.91178417       53.64739895
 H71  1.0      87.20500946       61.57541752       53.14133167
 H72  1.0      85.57785034       61.35766983       53.28439236
 C8   6.0      86.63492203       61.02134228       55.25088787
 H81  1.0      86.20759964       60.12659550       55.70356369
 C9   6.0      85.66360474       62.09283352       55.83269596
 H91  1.0      84.69280243       61.72073364       55.50531864
 H92  1.0      85.72381973       62.10120678       56.92099571
 H93  1.0      85.89561462       63.06291103       55.39311409
 C10  6.0      88.13123703       61.15719795       55.77908039
 H101 1.0      88.75215530       60.54507256       55.12496948
 H102 1.0      88.53416443       62.16393948       55.66847324
 C11  6.0      88.38277817       60.70311546       57.26290703
 H111 1.0      88.04609299       61.54911041       57.86211014
 H112 1.0      87.85541534       59.75855827       57.39632607
 C12  6.0      89.90186691       60.43568611       57.55995274
 H121 1.0      90.22371292       59.70386982       56.81903839
 H122 1.0      90.45688629       61.37297630       57.52064705
 C13  6.0      90.17370224       59.50384617       58.86930466
 H131 1.0      89.49760437       58.64937305       58.83989334
 C14  6.0      89.62387085       60.08678913       60.17643929
 H141 1.0      88.58255386       60.37756443       60.03773689
 H142 1.0      89.60762024       59.38739777       61.01232052
 H143 1.0      90.28476715       60.92777252       60.38630009
 C15  6.0      91.56665802       58.72729778       58.85936260
 H151 1.0      91.60091400       57.92810440       59.59978580
 H152 1.0      91.60055161       58.19353104       57.90960312
 C16  6.0      92.84988403       59.55745697       59.02442932
 H161 1.0      92.77830124       60.39824486       58.33447456
 H162 1.0      92.96289444       60.00327110       60.01265526
 C17  6.0      94.16030884       58.80844593       58.62767696
 H171 1.0      94.97791290       59.52460289       58.70986462
 H172 1.0      94.27452087       58.09081078       59.44011211
 C18  6.0      94.29653168       58.13239098       57.22433567
 H181 1.0      93.54860306       57.35153675       57.08656788
 C19  6.0      95.65660477       57.39357471       56.98442459
 H191 1.0      95.66831589       56.50538921       57.61616230
 H192 1.0      95.79181671       56.94869995       55.99857330
 H193 1.0      96.42913818       58.11789036       57.24262714
 C20  6.0      94.10137177       59.17677879       56.04934692
 H201 1.0      93.07291031       59.53725815       56.07015610
 H202 1.0      94.84083176       59.97725487       56.02613926
 H203 1.0      94.24249649       58.57919693       55.14874458
 $end 
!comment atoms to be erased:
!polarization points to remove: