 $contrl units=angs local=boys runtyp=makefp 
       mult=1 icharg=0 coord=cart icut=11 $end
 $system timlim=99999 mwords=200 $end
 $scf soscf=.f. dirscf=.t. diis=.t. CONV=1.0d-06 $end
 $basis gbasis=n31 ngauss=6 ndfunc=1 $end
 $DAMP IFTTYP(1)=2,0 IFTFIX(1)=1,1 thrsh=500.0 $end
 $MAKEFP POL=.t. DISP=.f. CHTR=.f. EXREP=.f. $end
 $data
 bcl_362_5947
 C1
 MG   12.0      85.86824417       57.07751751       68.79231930
 CHA  6.0      88.13503265       56.42607689       71.36193752
 CHB  6.0      88.17764282       59.13087368       67.27440357
 HB   1.0      88.92822266       59.85258102       66.94543362
 CHC  6.0      83.62098694       57.66109943       66.29417896
 HC   1.0      82.88738251       57.76657104       65.49219608
 CHD  6.0      83.35935593       55.51282406       70.68689823
 HD   1.0      82.70730972       54.89151001       71.30436420
 NA   7.0      87.98440933       57.65112877       69.29350376
 C1A  6.0      88.72858047       57.27358818       70.39391994
 C2A  6.0      90.12346268       57.91252136       70.27933598
 H2A  1.0      90.21272659       58.47023487       71.21158123
 C3A  6.0      89.89299774       59.06317711       69.23741817
 H3A  1.0      90.75187683       58.92390728       68.58088017
 C4A  6.0      88.63452911       58.57106209       68.53056431
 CMA  6.0      89.78876114       60.50712109       69.81290340
 HMA1 1.0      89.58600998       61.22955799       69.02227879
 HMA2 1.0      88.98332596       60.44184208       70.54440975
 HMA3 1.0      90.68881989       60.82138538       70.34130573
 CAA  6.0      91.43455505       56.98078632       70.17205715
 HAA1 1.0      92.27416992       57.67554283       70.15065670
 HAA2 1.0      91.45153046       56.51126862       71.15561008
 CBA  6.0      91.47045135       55.82009315       69.12520885
 HBA1 1.0      90.97139359       56.35018826       68.31401348
 HBA2 1.0      92.48910904       55.64700127       68.77807140
 CGA  6.0      90.77266693       54.42643642       69.44338322
 O1A  8.0      91.20447159       53.57187748       70.19473553
 O2A  8.0      90.00730515       54.00235176       68.38458538
 NB   7.0      85.99172592       57.98283100       66.90474987
 C1B  6.0      87.01276779       58.79408360       66.46918774
 C2B  6.0      86.73362732       59.11707878       65.05734921
 C3B  6.0      85.47964096       58.61687660       64.71992970
 C4B  6.0      84.93040085       58.15281391       66.06338978
 CMB  6.0      87.73136139       60.09183884       64.19679165
 HMB1 1.0      87.18965530       60.75376511       63.52112293
 HMB2 1.0      88.46485138       60.62834263       64.79866505
 HMB3 1.0      88.37913513       59.42063808       63.63290310
 CAB  6.0      84.77067947       58.50932121       63.33839417
 OBB  8.0      83.59233856       58.13143253       63.13128948
 CBB  6.0      85.68393707       58.52669239       62.05721855
 HBB1 1.0      86.57068253       57.92066574       62.24306583
 HBB2 1.0      85.08399963       58.03097248       61.29404545
 HBB3 1.0      85.95834732       59.52686310       61.72187805
 NC   7.0      83.69964600       56.66110992       68.50970745
 C1C  6.0      83.02780151       57.06460476       67.44533062
 C2C  6.0      81.57014847       56.48398399       67.41660595
 H2C  1.0      81.51590347       55.70284367       66.65832996
 C3C  6.0      81.49339676       55.83006382       68.88445377
 H3C  1.0      80.83597183       56.46840096       69.47473049
 C4C  6.0      82.94485092       55.99197865       69.42327023
 CMC  6.0      80.36859512       57.46087074       67.09639072
 HMC1 1.0      80.57901382       58.38773727       67.63000011
 HMC2 1.0      80.34688950       57.63505459       66.02060795
 HMC3 1.0      79.43918705       56.94879055       67.34550953
 CAC  6.0      80.86727142       54.32764530       68.95420551
 HAC1 1.0      81.55155182       53.71561527       68.36660862
 HAC2 1.0      80.89126587       53.94639492       69.97508526
 CBC  6.0      79.41256046       54.16978359       68.56570721
 HBC1 1.0      79.00904179       53.19022179       68.82210255
 HBC2 1.0      78.83738995       54.89993572       69.13505077
 HBC3 1.0      79.39245701       54.45174217       67.51300335
 ND   7.0      85.70621490       56.13969326       70.60255527
 C1D  6.0      84.66400146       55.50212860       71.24199390
 C2D  6.0      85.12458801       54.95750904       72.51284122
 C3D  6.0      86.49322510       55.32034397       72.63228893
 C4D  6.0      86.77680969       56.02916241       71.44552708
 CMD  6.0      84.27789688       54.23162937       73.53228092
 HMD1 1.0      83.50378036       53.63930225       73.04442883
 HMD2 1.0      84.81231689       53.42421532       74.03285503
 HMD3 1.0      83.81841660       54.95305538       74.20794964
 CAD  6.0      87.72481918       55.13512135       73.42029095
 OBD  8.0      87.85709381       54.46851730       74.44643497
 CBD  6.0      88.88257980       55.81518173       72.58722782
 HBD  1.0      89.67025757       55.08871555       72.38738537
 CGD  6.0      89.48970795       56.92717552       73.52033138
 O1D  8.0      88.89648438       57.94878483       73.91731739
 O2D  8.0      90.53407669       56.46088123       74.28685665
 CED  6.0      91.81520462       57.12862492       74.13211346
 HED1 1.0      91.93073273       57.82437801       73.30104351
 HED2 1.0      91.94622040       57.63372898       75.08908749
 HED3 1.0      92.58010864       56.35238647       74.15391445
 C1   6.0      88.62789154       53.75671864       68.60914707
 H11  1.0      88.38922501       52.86535740       69.18933392
 H12  1.0      88.07163239       54.55241203       69.10468578
 C2   6.0      87.89691925       53.45880032       67.29760647
 H21  1.0      88.63334656       53.35444450       66.50081158
 C3   6.0      86.57972336       53.26578140       66.98387623
 C4   6.0      85.38022995       53.12716961       67.99116611
 H41  1.0      85.10976791       52.07964897       68.12399387
 H42  1.0      85.67619324       53.49416733       68.97393703
 H43  1.0      84.49079514       53.69566917       67.71950245
 C5   6.0      86.22795105       53.06885719       65.49145222
 H51  1.0      87.00090408       52.52137184       64.95208263
 H52  1.0      85.43413162       52.32273102       65.52644253
 C6   6.0      85.81323624       54.38120365       64.71863270
 H61  1.0      84.91817474       54.79806423       65.18035412
 H62  1.0      86.59118652       55.12679577       64.88288403
 C7   6.0      85.58446884       54.18966770       63.10863972
 H71  1.0      85.41540146       55.15019894       62.62192249
 H72  1.0      86.53594971       53.80348206       62.74308205
 C8   6.0      84.35968399       53.28244209       62.61734962
 H81  1.0      84.58202362       52.26133823       62.92719364
 C9   6.0      82.99598694       53.64800453       63.31262589
 H91  1.0      82.07975388       53.25915337       62.86833286
 H92  1.0      82.90719986       53.31507206       64.34672832
 H93  1.0      82.81558990       54.72256184       63.34228516
 C10  6.0      84.20955658       53.25209618       61.02209568
 H101 1.0      83.58264923       54.09007549       60.71732998
 H102 1.0      85.15001297       53.46018314       60.51185131
 C11  6.0      83.81313324       51.88350201       60.34263134
 H111 1.0      84.65188980       51.20697021       60.17871380
 H112 1.0      83.12374115       51.32980824       60.98003864
 C12  6.0      83.20867538       52.08946228       58.90487194
 H121 1.0      82.41140366       52.83272743       58.90558243
 H122 1.0      84.00568008       52.50329494       58.28710556
 C13  6.0      82.59815216       50.84007263       58.13827991
 H131 1.0      81.83134079       50.24634361       58.63584995
 C14  6.0      83.63302231       49.65043068       57.94514179
 H141 1.0      84.58364487       49.97029781       57.51842499
 H142 1.0      83.84717941       49.21575546       58.92151356
 H143 1.0      83.20468903       48.76468182       57.47600555
 C15  6.0      82.16922760       51.15955353       56.67487621
 H151 1.0      83.04286957       51.44271374       56.08778477
 H152 1.0      81.73311234       50.30990124       56.14951611
 C16  6.0      81.13449097       52.29331970       56.39686584
 H161 1.0      80.36535263       52.22301483       57.16601849
 H162 1.0      81.70537949       53.20355415       56.58029079
 C17  6.0      80.43848038       52.31847286       54.97844696
 H171 1.0      81.21658325       52.69071102       54.31203365
 H172 1.0      80.11032104       51.35363579       54.59179401
 C18  6.0      79.18797970       53.27492237       54.85890865
 H181 1.0      79.18938160       54.21861649       55.40437222
 C19  6.0      77.84779072       52.63138294       55.29650211
 H191 1.0      76.99318409       53.30418110       55.36791325
 H192 1.0      77.50710964       51.85598850       54.61035252
 H193 1.0      78.00189495       52.22040653       56.29421711
 C20  6.0      79.04366970       53.87526035       53.42239380
 H201 1.0      78.37430477       54.73402977       53.47306252
 H202 1.0      80.00452042       54.34276581       53.20726395
 H203 1.0      78.69963169       53.21466923       52.62654781
 $end 
!comment atoms to be erased:
!polarization points to remove: