 $contrl units=angs local=boys runtyp=makefp 
       mult=1 icharg=0 coord=cart icut=11 $end
 $system timlim=99999 mwords=200 $end
 $scf soscf=.f. dirscf=.t. diis=.t. CONV=1.0d-06 $end
 $basis gbasis=n31 ngauss=6 ndfunc=1 $end
 $DAMP IFTTYP(1)=2,0 IFTFIX(1)=1,1 thrsh=500.0 $end
 $MAKEFP POL=.t. DISP=.f. CHTR=.f. EXREP=.f. $end
 $data
 bcl_363_6087
 C1
 MG   12.0      91.84848785       63.78532410       58.34981441
 CHA  6.0      90.51383972       63.67772579       61.55364990
 CHB  6.0      95.01913071       63.11315060       59.77572441
 HB   1.0      96.04305267       63.02032471       60.14375687
 CHC  6.0      93.40204239       64.03603077       55.25249481
 HC   1.0      93.86766434       64.27512646       54.29411411
 CHD  6.0      88.96604538       65.23070335       57.10813046
 HD   1.0      88.07142258       65.71029663       56.70549393
 NA   7.0      92.64896393       63.40317249       60.44961929
 C1A  6.0      91.87097549       63.41381073       61.59834385
 C2A  6.0      92.74961472       62.91279316       62.77183056
 H2A  1.0      92.52243042       63.56849670       63.61239433
 C3A  6.0      94.18766022       63.23206902       62.23129272
 H3A  1.0      94.86127853       62.39788055       62.42739201
 C4A  6.0      93.95009995       63.24394226       60.72109699
 CMA  6.0      94.83737946       64.48386192       62.83688545
 HMA1 1.0      94.20593262       65.36657333       62.73598194
 HMA2 1.0      94.83825684       64.30556297       63.91220570
 HMA3 1.0      95.79175949       64.59136963       62.32141495
 CAA  6.0      92.42946625       61.40791893       63.27647686
 HAA1 1.0      91.34851456       61.27270699       63.23972702
 HAA2 1.0      92.90040970       60.73146820       62.56322384
 CBA  6.0      93.01868439       60.97415924       64.70710278
 HBA1 1.0      94.10007477       61.10221863       64.75494862
 HBA2 1.0      92.59860992       61.65142059       65.45072079
 CGA  6.0      92.68911362       59.54437256       65.39958477
 O1A  8.0      92.93853760       59.25886154       66.54766560
 O2A  8.0      92.59782791       58.56923103       64.47978497
 NB   7.0      93.88595581       63.41031075       57.57706642
 C1B  6.0      94.93612289       63.05118561       58.30775738
 C2B  6.0      96.02746964       62.64918804       57.40916252
 C3B  6.0      95.77383041       63.22368145       56.11386299
 C4B  6.0      94.28707123       63.57088089       56.22137547
 CMB  6.0      97.27279663       61.88952446       57.92373180
 HMB1 1.0      97.98448563       62.64270782       58.26184273
 HMB2 1.0      97.00273514       61.16858006       58.69536400
 HMB3 1.0      97.66355515       61.21814728       57.15909958
 CAB  6.0      96.74068451       63.45117569       54.92040157
 OBB  8.0      96.36663437       63.91506195       53.88580322
 CBB  6.0      98.22652817       63.33716393       55.06204128
 HBB1 1.0      98.73596191       63.77627850       54.20427322
 HBB2 1.0      98.56109619       63.98264408       55.87414742
 HBB3 1.0      98.53055954       62.32356071       55.32331944
 NC   7.0      91.25999451       64.39250946       56.37574196
 C1C  6.0      92.05364227       64.48132038       55.32175064
 C2C  6.0      91.31540298       65.09246826       54.00956154
 H2C  1.0      91.28419876       64.22339439       53.35242271
 C3C  6.0      89.85485077       65.39774895       54.56931591
 H3C  1.0      89.57292557       66.44790649       54.49327469
 C4C  6.0      90.00808716       65.01089096       56.13907814
 CMC  6.0      92.03319550       66.31820202       53.37312222
 HMC1 1.0      92.02350616       67.13114262       54.09915447
 HMC2 1.0      92.96850204       66.09519482       52.85974503
 HMC3 1.0      91.36798859       66.71659946       52.60702610
 CAC  6.0      88.60023499       64.60541725       53.82613659
 HAC1 1.0      88.93297195       63.57450008       53.70529652
 HAC2 1.0      87.82703400       64.67712402       54.59105968
 CBC  6.0      88.11017990       65.19633293       52.48131752
 HBC1 1.0      87.45307922       66.05063915       52.64403820
 HBC2 1.0      88.93438339       65.52513599       51.84831142
 HBC3 1.0      87.48664856       64.51711178       51.89997673
 ND   7.0      90.03221512       64.20769691       59.10061359
 C1D  6.0      88.92898560       64.85279560       58.50544930
 C2D  6.0      87.78160095       64.90238190       59.44599152
 C3D  6.0      88.33658218       64.43448067       60.68806648
 C4D  6.0      89.70481873       64.07354355       60.42208195
 CMD  6.0      86.37678146       65.35104752       59.12961960
 HMD1 1.0      85.98449707       64.54046249       58.51548672
 HMD2 1.0      85.81871033       65.30321598       60.06469250
 HMD3 1.0      86.41700745       66.33881092       58.67048264
 CAD  6.0      88.05036545       64.11402225       62.06336975
 OBD  8.0      87.02308655       64.27022934       62.71141529
 CBD  6.0      89.49636459       63.69191647       62.77158737
 HBD  1.0      89.38888550       62.68753529       63.18118572
 CGD  6.0      89.80848312       64.62183952       63.96519184
 O1D  8.0      89.37425613       64.39107418       65.11040211
 O2D  8.0      89.95876312       65.90643883       63.42603207
 CED  6.0      91.10298157       66.67366505       63.88556004
 HED1 1.0      91.15957260       67.58950710       63.29722881
 HED2 1.0      90.98867416       66.91860199       64.94151592
 HED3 1.0      92.06665039       66.17826462       63.76721859
 C1   6.0      91.32873535       57.78365612       64.54557896
 H11  1.0      91.33787155       57.10908890       65.40172100
 H12  1.0      90.47237396       58.43769550       64.70979214
 C2   6.0      91.02022171       57.02121735       63.20830345
 H21  1.0      91.32955551       57.65290737       62.37560272
 C3   6.0      90.43283463       55.82881927       62.99586296
 C4   6.0      89.83654022       54.91667747       64.09979343
 H41  1.0      90.51982880       54.08419609       64.26765919
 H42  1.0      89.73360062       55.34033298       65.09880543
 H43  1.0      88.88031006       54.51622009       63.76310825
 C5   6.0      90.37458420       55.15716076       61.50273323
 H51  1.0      91.23575211       55.36886692       60.86896896
 H52  1.0      90.26304245       54.08908844       61.68949127
 C6   6.0      89.15950775       55.65361500       60.69374561
 H61  1.0      88.33129883       55.30691624       61.31178856
 H62  1.0      89.16023254       56.73953533       60.78794956
 C7   6.0      89.28182602       55.18815041       59.23418999
 H71  1.0      89.84693527       54.25608635       59.23077106
 H72  1.0      90.05704880       55.81983089       58.80049229
 C8   6.0      87.86451340       55.06687641       58.45716000
 H81  1.0      87.23218918       54.43063259       59.07640457
 C9   6.0      88.11576843       54.23347473       57.06041336
 H91  1.0      89.00308609       54.50511932       56.48857594
 H92  1.0      88.16959381       53.15035820       57.17020988
 H93  1.0      87.21607208       54.31354523       56.45031929
 C10  6.0      87.08292007       56.44672394       58.10677052
 H101 1.0      87.30684280       57.24289894       58.81674290
 H102 1.0      87.34567642       56.82859898       57.12024689
 C11  6.0      85.50632477       56.39811516       58.12029362
 H111 1.0      85.10025024       55.56701183       57.54369259
 H112 1.0      85.16181946       56.13183975       59.11954880
 C12  6.0      84.75999832       57.79936790       57.79260635
 H121 1.0      85.25033951       58.51879120       58.44843864
 H122 1.0      85.08972168       58.00894737       56.77503109
 C13  6.0      83.14435959       57.84423351       57.95765400
 H131 1.0      82.89690018       58.89148235       57.78403759
 C14  6.0      82.66319275       57.61071682       59.39919472
 H141 1.0      82.78388977       56.57855988       59.72810268
 H142 1.0      83.24754715       58.27005386       60.04100323
 H143 1.0      81.62523270       57.93579102       59.47016716
 C15  6.0      82.33591080       56.95188046       56.91395760
 H151 1.0      82.75060654       55.94643116       56.98616028
 H152 1.0      81.27857208       56.87368870       57.16695309
 C16  6.0      82.33835220       57.23659039       55.37399769
 H161 1.0      83.32817078       57.46672630       54.97979164
 H162 1.0      82.00017929       56.30172729       54.92703438
 C17  6.0      81.23922348       58.20908070       54.87891197
 H171 1.0      80.23374557       57.81142712       55.01681805
 H172 1.0      81.23889923       59.10283566       55.50285339
 C18  6.0      81.35572433       58.72140884       53.41428757
 H181 1.0      81.71327591       57.85678864       52.85508633
 C19  6.0      82.52210617       59.83004570       53.17663193
 H191 1.0      82.12274551       60.67197800       53.74210835
 H192 1.0      83.48014832       59.57144260       53.62763405
 H193 1.0      82.61199951       60.17879486       52.14785576
 C20  6.0      80.03185272       59.20290470       52.71453857
 H201 1.0      79.45163250       60.05112171       53.07782650
 H202 1.0      80.11125565       59.32987690       51.63487434
 H203 1.0      79.32405949       58.38618279       52.85624504
 $end 
!comment atoms to be erased:
!polarization points to remove: