 $contrl units=angs local=boys runtyp=makefp 
       mult=1 icharg=0 coord=cart icut=11 $end
 $system timlim=99999 mwords=200 $end
 $scf soscf=.f. dirscf=.t. diis=.t. CONV=1.0d-06 $end
 $basis gbasis=n31 ngauss=6 ndfunc=1 $end
 $DAMP IFTTYP(1)=2,0 IFTFIX(1)=1,1 thrsh=500.0 $end
 $MAKEFP POL=.t. DISP=.f. CHTR=.f. EXREP=.f. $end
 $data
 bcl_727_12453
 C1
 MG   12.0      69.06889439       67.41407394       85.10894775
 CHA  6.0      71.44977093       69.26772594       83.19490433
 CHB  6.0      68.47428799       70.24133205       87.07195282
 HB   1.0      68.49757671       71.08907223       87.75989532
 CHC  6.0      66.45816326       65.79694748       86.59946442
 HC   1.0      65.50142765       65.37068844       86.90834045
 CHD  6.0      69.96514797       64.51557159       83.40906143
 HD   1.0      70.22553921       63.57015610       82.92858124
 NA   7.0      69.72321987       69.55083370       85.03065109
 C1A  6.0      70.68141460       70.08895397       84.12441254
 C2A  6.0      70.90852261       71.61462307       84.35636520
 H2A  1.0      71.97708607       71.82886600       84.33692932
 C3A  6.0      70.27536869       71.76167011       85.82023621
 H3A  1.0      69.61285114       72.62718678       85.81190109
 C4A  6.0      69.44749355       70.46168804       86.03418350
 CMA  6.0      71.30997181       72.03617573       86.94293976
 HMA1 1.0      70.90448856       72.76221752       87.64760971
 HMA2 1.0      71.71632290       71.11962795       87.37062454
 HMA3 1.0      72.17770100       72.55069256       86.53011322
 CAA  6.0      70.29197216       72.52927303       83.17182541
 HAA1 1.0      70.44026852       72.15036869       82.16060638
 HAA2 1.0      69.20435429       72.54146099       83.24270248
 CBA  6.0      70.83907604       73.98664951       83.11004639
 HBA1 1.0      71.09656811       74.28709507       84.12569046
 HBA2 1.0      71.81847095       74.04334545       82.63500214
 CGA  6.0      69.90540981       75.07224560       82.61240005
 O1A  8.0      68.96852016       75.46459675       83.31417084
 O2A  8.0      70.57281017       76.00952625       81.91038132
 NB   7.0      67.65967846       67.87699223       86.68664932
 C1B  6.0      67.60106564       69.11020756       87.35168457
 C2B  6.0      66.51996136       69.01017666       88.41720581
 C3B  6.0      65.90299129       67.74749279       88.29971313
 C4B  6.0      66.64976597       67.10070610       87.13848114
 CMB  6.0      66.31306171       70.05565166       89.45932388
 HMB1 1.0      65.24480343       70.24200916       89.56975937
 HMB2 1.0      66.66339397       69.77712154       90.45320511
 HMB3 1.0      66.74912930       71.04706287       89.33658600
 CAB  6.0      64.77313519       67.19748974       89.27705765
 OBB  8.0      64.36895847       67.76732445       90.31965256
 CBB  6.0      64.17652607       65.78578949       89.28300858
 HBB1 1.0      65.01807690       65.09501934       89.23078537
 HBB2 1.0      63.63016605       65.46943665       90.17154694
 HBB3 1.0      63.59372616       65.56809902       88.38798523
 NC   7.0      68.32871914       65.47814846       85.05926132
 C1C  6.0      67.26107121       64.97436523       85.73627472
 C2C  6.0      66.89264774       63.51838589       85.27130127
 H2C  1.0      65.92404842       63.64015579       84.78643417
 C3C  6.0      68.02482128       63.12674999       84.20122147
 H3C  1.0      68.66879940       62.33693600       84.58799362
 C4C  6.0      68.82930279       64.43924427       84.19981003
 CMC  6.0      66.54741764       62.49653339       86.47010803
 HMC1 1.0      67.33327389       62.45744228       87.22442627
 HMC2 1.0      65.58691502       62.86339760       86.83195114
 HMC3 1.0      66.39918804       61.48695469       86.08686447
 CAC  6.0      67.54322529       62.45502949       82.82266617
 HAC1 1.0      66.81784153       63.12139988       82.35591888
 HAC2 1.0      68.41728687       62.41629124       82.17258453
 CBC  6.0      66.70853138       61.07449055       82.75375366
 HBC1 1.0      66.62878513       60.82329750       81.69610977
 HBC2 1.0      67.34942913       60.40070057       83.32241058
 HBC3 1.0      65.78197002       61.27653599       83.29111099
 ND   7.0      70.38238049       66.98875904       83.59235764
 C1D  6.0      70.68612576       65.72862148       83.00199509
 C2D  6.0      71.85344219       65.88729858       82.10975647
 C3D  6.0      72.12233067       67.26701736       82.13026047
 C4D  6.0      71.25808239       67.86580563       83.05667877
 CMD  6.0      72.42797375       64.78627205       81.23067856
 HMD1 1.0      73.12266827       65.15998840       80.47845840
 HMD2 1.0      73.06128979       64.08411980       81.77288055
 HMD3 1.0      71.58364773       64.26396847       80.78079224
 CAD  6.0      73.04484844       68.27049732       81.53463364
 OBD  8.0      73.93248081       68.14141750       80.71458817
 CBD  6.0      72.63446331       69.62093830       82.21569061
 HBD  1.0      72.30324268       70.22103786       81.36817932
 CGD  6.0      73.91486645       70.41975498       82.67173767
 O1D  8.0      74.06808376       71.56401157       82.34968185
 O2D  8.0      74.42368031       69.91017818       83.81719589
 CED  6.0      75.82629681       69.54802990       83.85616302
 HED1 1.0      75.91269016       68.67569447       84.50399399
 HED2 1.0      76.25638485       69.26214695       82.89627075
 HED3 1.0      76.38540745       70.35478115       84.33013916
 C1   6.0      70.02766132       76.16008282       80.57794571
 H11  1.0      70.23982525       75.33009052       79.90400791
 H12  1.0      68.95398617       76.34651661       80.60197830
 C2   6.0      70.66257000       77.47530460       80.01831055
 H21  1.0      70.15523434       78.42551708       80.18505096
 C3   6.0      71.89866543       77.61764050       79.48968410
 C4   6.0      72.87795544       76.46271229       79.23343182
 H41  1.0      72.68957615       75.96840382       78.28040600
 H42  1.0      73.89833927       76.84261799       79.18250561
 H43  1.0      72.89201260       75.85569859       80.13866425
 C5   6.0      72.53443241       79.04153347       79.02361393
 H51  1.0      71.95601940       79.76044178       79.60388660
 H52  1.0      73.56477261       79.12270069       79.36990261
 C6   6.0      72.60344028       79.54000950       77.58226871
 H61  1.0      72.81294346       80.60323715       77.69956112
 H62  1.0      73.30376148       78.86887074       77.08505154
 C7   6.0      71.31779194       79.38265324       76.72246456
 H71  1.0      71.07938290       78.32217693       76.64090633
 H72  1.0      70.49561977       79.82240200       77.28705883
 C8   6.0      71.24291897       80.07537842       75.32103062
 H81  1.0      71.45314693       81.10742569       75.60170650
 C9   6.0      72.43196964       79.52725887       74.33481693
 H91  1.0      73.42250347       79.72605228       74.74399090
 H92  1.0      72.36667156       78.44559193       74.21724796
 H93  1.0      72.53773212       80.07442474       73.39805126
 C10  6.0      69.81215000       79.93994236       74.53835011
 H101 1.0      69.80186939       78.90863895       74.18561459
 H102 1.0      69.05853748       79.82228756       75.31702518
 C11  6.0      69.30753231       81.05894089       73.47230434
 H111 1.0      70.05956173       81.35953903       72.74279118
 H112 1.0      68.49052906       80.64893723       72.87857533
 C12  6.0      68.82158756       82.34975815       74.19855595
 H121 1.0      67.79280186       82.22211838       74.53532696
 H122 1.0      69.37839985       82.54985809       75.11399746
 C13  6.0      68.83682728       83.74408722       73.47364902
 H131 1.0      69.73920345       83.88189316       72.87797451
 C14  6.0      67.71236897       83.83907318       72.30625629
 H141 1.0      67.75580883       83.07273865       71.53234005
 H142 1.0      66.72933102       83.70946884       72.75896549
 H143 1.0      67.64857769       84.85925674       71.92781925
 C15  6.0      68.86815548       85.04789352       74.43658352
 H151 1.0      69.79998112       85.02779007       75.00174046
 H152 1.0      69.07343388       85.96673965       73.88731480
 C16  6.0      67.67096043       85.26035309       75.43027401
 H161 1.0      66.72395229       85.25344849       74.89060879
 H162 1.0      67.68743038       84.50174332       76.21277332
 C17  6.0      67.72053242       86.60312653       76.14910603
 H171 1.0      68.57286930       86.50997162       76.82212353
 H172 1.0      67.90533543       87.41500854       75.44568539
 C18  6.0      66.41425610       87.09533691       76.98358059
 H181 1.0      65.69662571       87.27510452       76.18307590
 C19  6.0      66.60268307       88.47604752       77.70364285
 H191 1.0      66.87067509       89.32256699       77.07145214
 H192 1.0      65.75841427       88.85074615       78.28235149
 H193 1.0      67.38613605       88.40190887       78.45784664
 C20  6.0      65.69151402       86.05134964       77.96922207
 H201 1.0      66.28040791       85.94205856       78.87991428
 H202 1.0      64.71857548       86.44731522       78.26031208
 H203 1.0      65.46680927       85.12672424       77.43756771
 $end 
!comment atoms to be erased:
!polarization points to remove: