 $contrl units=angs local=boys runtyp=makefp 
       mult=1 icharg=-1 coord=cart icut=11 $end
 $system timlim=99999 mwords=200 $end
 $scf soscf=.f. dirscf=.t. diis=.t. CONV=1.0d-06 $end
 $basis gbasis=n31 ngauss=6 ndfunc=1 $end
 $DAMP IFTTYP(1)=2,0 IFTFIX(1)=1,1 thrsh=500.0 $end
 $MAKEFP POL=.t. DISP=.f. CHTR=.f. EXREP=.f. $end
 $data
 d_253_3867
 C1
 C    6.0      73.83868694       41.98600769       59.16952610
 O    8.0      74.06177044       41.37619019       58.13470364
 N    7.0      72.73417950       41.83191299       59.88709927
 H    1.0      72.83972263       42.18007565       60.82930088
 CA   6.0      71.67469501       40.85185528       59.70337868
 HA   1.0      71.19401455       41.14127636       58.76887798
 CB   6.0      72.03643322       39.38379288       59.46757793
 HB1  1.0      72.93370724       39.45853710       58.85324001
 HB2  1.0      71.36665821       38.71551037       58.92637730
 CG   6.0      72.43800640       38.57194901       60.74786186
 OD1  8.0      73.61596584       38.25526237       61.00786686
 OD2  8.0      71.59399509       38.12771320       61.55880928
 H000 1.0      74.60282650       42.69400269       59.45019085
 H000 1.0      70.89944704       40.93131309       60.44944566
 $end 
!comment atoms to be erased:
!polarization points to remove: