 $contrl units=angs local=boys runtyp=makefp 
       mult=1 icharg=-1 coord=cart icut=11 $end
 $system timlim=99999 mwords=200 $end
 $scf soscf=.f. dirscf=.t. diis=.t. CONV=1.0d-06 $end
 $basis gbasis=n31 ngauss=6 ndfunc=1 $end
 $DAMP IFTTYP(1)=2,0 IFTFIX(1)=1,1 thrsh=500.0 $end
 $MAKEFP POL=.t. DISP=.f. CHTR=.f. EXREP=.f. $end
 $data
 d_262_4002
 C1
 C    6.0      90.64281464       48.34777832       62.53756046
 O    8.0      90.91634750       48.02588463       63.65633488
 N    7.0      91.62082672       48.58359814       61.62603855
 H    1.0      91.37506485       48.89087200       60.69582939
 CA   6.0      93.06966782       48.24344635       61.77854061
 HA   1.0      93.34022522       48.34523201       62.82951355
 CB   6.0      93.28395844       46.81374550       61.45709038
 HB1  1.0      93.24018478       46.63268089       60.38312435
 HB2  1.0      92.48338699       46.22308254       61.90238476
 CG   6.0      94.61460114       46.29327774       62.08123684
 OD1  8.0      95.69551468       46.64229393       61.59338474
 OD2  8.0      94.50574875       45.43960094       62.97844410
 H000 1.0      89.59566947       48.43551545       62.29316715
 H000 1.0      93.67062787       48.94109150       61.21633321
 $end 
!comment atoms to be erased:
!polarization points to remove: