 $contrl units=angs local=boys runtyp=makefp 
       mult=1 icharg=-1 coord=cart icut=11 $end
 $system timlim=99999 mwords=200 $end
 $scf soscf=.f. dirscf=.t. diis=.t. CONV=1.0d-06 $end
 $basis gbasis=n31 ngauss=6 ndfunc=1 $end
 $DAMP IFTTYP(1)=2,0 IFTFIX(1)=1,1 thrsh=500.0 $end
 $MAKEFP POL=.t. DISP=.f. CHTR=.f. EXREP=.f. $end
 $data
 d_302_4601
 C1
 C    6.0      79.70397472       45.54140091       78.54554653
 O    8.0      80.01003265       45.47444820       79.69921589
 N    7.0      80.35913467       44.81629372       77.61848927
 H    1.0      79.99154568       44.84350204       76.67815685
 CA   6.0      81.71823502       44.35262680       77.74862766
 HA   1.0      82.15845108       44.54590321       78.72686863
 CB   6.0      81.74942017       42.84244537       77.40871906
 HB1  1.0      81.18310928       42.71897316       76.48561001
 HB2  1.0      81.15484238       42.30327129       78.14620495
 CG   6.0      83.13663483       42.21627235       77.31523037
 OD1  8.0      83.15664291       41.20967388       76.54183865
 OD2  8.0      84.01237488       42.67277241       78.02576542
 H000 1.0      78.88566649       46.17028482       78.23119707
 H000 1.0      82.35445521       44.84276417       77.02826100
 $end 
!comment atoms to be erased:
!polarization points to remove: