 $contrl units=angs local=boys runtyp=makefp 
       mult=1 icharg=-1 coord=cart icut=11 $end
 $system timlim=99999 mwords=200 $end
 $scf soscf=.f. dirscf=.t. diis=.t. CONV=1.0d-06 $end
 $basis gbasis=n31 ngauss=6 ndfunc=1 $end
 $DAMP IFTTYP(1)=2,0 IFTFIX(1)=1,1 thrsh=500.0 $end
 $MAKEFP POL=.t. DISP=.f. CHTR=.f. EXREP=.f. $end
 $data
 d_40_570
 C1
 C    6.0      76.20090008       43.11661720       55.00289440
 O    8.0      76.46456242       42.46767521       56.01522923
 N    7.0      77.10097790       43.61984253       54.13610935
 H    1.0      76.69151783       44.07950878       53.33539486
 CA   6.0      78.56780529       43.68024349       54.26114082
 HA   1.0      78.74227047       43.61892700       55.33533573
 CB   6.0      79.19130802       42.43289948       53.59124660
 HB1  1.0      78.79308224       42.34011173       52.58084774
 HB2  1.0      78.91067982       41.53859615       54.14764404
 CG   6.0      80.73675156       42.52388954       53.48016739
 OD1  8.0      81.47176743       42.30634689       54.49926853
 OD2  8.0      81.33678436       42.73967266       52.39247799
 H000 1.0      75.18058572       43.32038227       54.71762734
 H000 1.0      79.01190776       44.57468661       53.85287202
 $end 
!comment atoms to be erased:
!polarization points to remove: