 $contrl units=angs local=boys runtyp=makefp 
       mult=1 icharg=-1 coord=cart icut=11 $end
 $system timlim=99999 mwords=200 $end
 $scf soscf=.f. dirscf=.t. diis=.t. CONV=1.0d-06 $end
 $basis gbasis=n31 ngauss=6 ndfunc=1 $end
 $DAMP IFTTYP(1)=2,0 IFTFIX(1)=1,1 thrsh=500.0 $end
 $MAKEFP POL=.t. DISP=.f. CHTR=.f. EXREP=.f. $end
 $data
 d_42_593
 C1
 C    6.0      82.73797989       46.35641575       53.94142151
 O    8.0      83.06661606       45.74646473       54.96937752
 N    7.0      83.63010406       46.81826115       53.07779789
 H    1.0      83.24117661       47.29068279       52.27427006
 CA   6.0      85.09494781       46.69355869       53.17727089
 HA   1.0      85.30534744       46.76531315       54.24436092
 CB   6.0      85.51343918       45.37831783       52.52665520
 HB1  1.0      85.32825470       45.25875092       51.45917416
 HB2  1.0      85.00959396       44.57922459       53.07043076
 CG   6.0      86.98242188       45.20058632       52.71179199
 OD1  8.0      87.76372910       45.67590714       51.84444904
 OD2  8.0      87.38395691       44.36551094       53.59039307
 H000 1.0      81.68722824       46.45995132       53.71974549
 H000 1.0      85.62029798       47.51205489       52.71035540
 $end 
!comment atoms to be erased:
!polarization points to remove: