 $contrl units=angs local=boys runtyp=makefp 
       mult=1 icharg=-1 coord=cart icut=11 $end
 $system timlim=99999 mwords=200 $end
 $scf soscf=.f. dirscf=.t. diis=.t. CONV=1.0d-06 $end
 $basis gbasis=n31 ngauss=6 ndfunc=1 $end
 $DAMP IFTTYP(1)=2,0 IFTFIX(1)=1,1 thrsh=500.0 $end
 $MAKEFP POL=.t. DISP=.f. CHTR=.f. EXREP=.f. $end
 $data
 d_68_1009
 C1
 C    6.0      71.70016766       44.05553818       50.28101921
 O    8.0      71.50995731       44.20725346       49.08176422
 N    7.0      70.95349789       43.28913212       51.06233597
 H    1.0      71.23929501       43.38815689       52.02598095
 CA   6.0      69.85394001       42.44300842       50.82733631
 HA   1.0      69.46993351       42.02228546       51.75665855
 CB   6.0      68.71697903       43.12844753       50.01326561
 HB1  1.0      69.23631191       43.51707458       49.13727760
 HB2  1.0      68.33231449       43.99569511       50.54994583
 CG   6.0      67.58123875       42.14713097       49.71292496
 OD1  8.0      66.77102566       41.81593418       50.54063797
 OD2  8.0      67.48322010       41.69154167       48.55630398
 H000 1.0      72.55448332       44.49138115       50.77510883
 H000 1.0      70.19505090       41.58164308       50.27449636
 $end 
!comment atoms to be erased:
!polarization points to remove: