 $contrl units=angs local=boys runtyp=makefp 
       mult=1 icharg=-1 coord=cart icut=11 $end
 $system timlim=99999 mwords=200 $end
 $scf soscf=.f. dirscf=.t. diis=.t. CONV=1.0d-06 $end
 $basis gbasis=n31 ngauss=6 ndfunc=1 $end
 $DAMP IFTTYP(1)=2,0 IFTFIX(1)=1,1 thrsh=500.0 $end
 $MAKEFP POL=.t. DISP=.f. CHTR=.f. EXREP=.f. $end
 $data
 d_7_84
 C1
 C    6.0      85.60445786       45.58277130       72.68922329
 O    8.0      85.72677612       45.33203125       73.87583256
 N    7.0      86.63642883       45.82690239       71.83378696
 H    1.0      86.38984680       46.19784832       70.92730999
 CA   6.0      88.04636002       45.63919544       72.09733486
 HA   1.0      88.21094513       45.93161583       73.13438892
 CB   6.0      88.42021942       44.16758537       72.07666874
 HB1  1.0      88.02436829       43.72995377       71.16020679
 HB2  1.0      88.04891586       43.58578205       72.92031765
 CG   6.0      89.94537354       43.88171196       71.97051525
 OD1  8.0      90.62387466       44.08482552       72.98908710
 OD2  8.0      90.46514511       43.48608971       70.86165905
 H000 1.0      84.62026294       45.64555121       72.25177849
 H000 1.0      88.74086834       46.27076605       71.56562474
 $end 
!comment atoms to be erased:
!polarization points to remove: