 $contrl units=angs local=boys runtyp=makefp 
       mult=1 icharg=-1 coord=cart icut=11 $end
 $system timlim=99999 mwords=200 $end
 $scf soscf=.f. dirscf=.t. diis=.t. CONV=1.0d-06 $end
 $basis gbasis=n31 ngauss=6 ndfunc=1 $end
 $DAMP IFTTYP(1)=2,0 IFTFIX(1)=1,1 thrsh=500.0 $end
 $MAKEFP POL=.t. DISP=.f. CHTR=.f. EXREP=.f. $end
 $data
 d_958_16718
 C1
 C    6.0      59.13435459       59.28348064       53.39959621
 O    8.0      58.52264404       58.46378326       54.08298492
 C    6.0      56.44894600       59.28156853       51.43664360
 O    8.0      56.74086094       59.12051201       50.23622036
 C    6.0      53.88189793       57.83481598       50.26800632
 O    8.0      53.83770466       57.27904320       49.15641308
 C    6.0      53.33929539       60.12042522       48.27390194
 O    8.0      52.78233051       60.12423038       47.15960026
 C    6.0      56.32154942       59.46607590       46.67200089
 O    8.0      56.90441608       59.55050945       45.56619644
 C    6.0      56.06194019       55.99791527       46.36213779
 O    8.0      56.53271675       55.02196789       45.73293686
 C    6.0      52.46400833       55.67226410       45.83655357
 O    8.0      51.45294189       54.96297836       45.88406086
 C    6.0      50.23802757       56.85897827       44.15180206
 O    8.0      49.12487030       57.28131294       44.49490547
 C    6.0      49.14603233       53.71004581       43.33417416
 O    8.0      48.00161362       53.30043793       43.34564686
 C    6.0      49.16664124       51.96548462       46.09356880
 O    8.0      48.74773502       50.95622540       46.64477825
 C    6.0      46.85537338       53.80500793       47.41723537
 O    8.0      46.08059406       54.11530495       48.30851078
 C    6.0      44.77037430       52.77551651       44.57506180
 O    8.0      44.66384888       53.02978039       43.36076260
 C    6.0      42.75986671       50.42792797       43.96926880
 O    8.0      42.00602531       49.56808567       44.40397263
 C    6.0      39.95602608       50.62985897       42.49526978
 O    8.0      38.91252995       50.15155792       43.02103043
 C    6.0      39.87329483       47.84213543       41.19497776
 O    8.0      39.13724422       46.97140694       40.80689430
 C    6.0      39.21455383       46.46610260       44.11315918
 O    8.0      38.93902779       45.43919563       44.71977711
 C    6.0      36.06849194       47.04502106       44.27899837
 O    8.0      35.16980648       47.74147511       43.74570847
 C    6.0      33.66288662       45.10891914       44.38758850
 O    8.0      32.51156330       44.82077599       43.89577866
 C    6.0      33.02441597       46.34324074       47.76570797
 O    8.0      34.14951801       46.86823368       47.71899223
 C    6.0      33.41342926       47.64023304       50.55789471
 O    8.0      33.67548943       46.52802944       50.95345020
 C    6.0      34.94412422       49.66047764       53.01565647
 O    8.0      34.61677551       50.80503464       52.71625042
 C    6.0      35.51960468       49.71504688       56.68632507
 O    8.0      35.91131210       48.55948448       56.84418678
 C    6.0      35.71890354       51.35135174       60.03079414
 O    8.0      35.21481991       52.44905472       59.81852531
 C    6.0      36.65158749       51.33042336       63.61269951
 O    8.0      37.27147102       50.24340630       63.76309872
 C    6.0      37.37300396       53.40446472       66.69380665
 O    8.0      36.38333797       54.10782337       66.49014950
 C    6.0      39.31067467       54.28009033       69.75231647
 O    8.0      40.22113800       53.39702606       69.70035076
 C    6.0      39.75069523       55.86251259       73.00472736
 O    8.0      38.72313499       56.53208256       72.90847301
 C    6.0      41.40767097       56.34173870       76.38444424
 O    8.0      42.34267712       55.55538654       76.14280224
 C    6.0      42.60606766       58.67863178       79.07902241
 O    8.0      41.70615673       59.50878143       79.15088177
 C    6.0      44.51069832       59.31533337       82.24788666
 O    8.0      45.63426018       59.06568050       81.74171448
 C    6.0      45.79917431       57.98711300       84.78229523
 O    8.0      46.71796799       57.73125648       85.59143066
 C    6.0      46.08938694       54.85200405       83.28662872
 O    8.0      46.65493488       53.78889084       83.53187561
 C    6.0      45.89484692       55.46787262       79.57177639
 O    8.0      45.12065887       56.36843681       79.67201710
 C    6.0      45.09516716       53.46061230       76.69960499
 O    8.0      45.91950417       52.54610538       76.71677113
 C    6.0      42.72208214       52.31832981       74.03743267
 O    8.0      41.94773674       53.28959942       73.79589558
 C    6.0      41.84238434       50.11879921       71.24280453
 O    8.0      42.02909946       49.01406288       71.77798748
 C    6.0      40.15453339       49.68982697       67.76890278
 O    8.0      40.02066612       50.81716061       67.46213436
 C    6.0      39.34293747       47.66952515       64.76898670
 O    8.0      39.70160484       46.54674053       65.14845371
 C    6.0      37.33299255       47.20911026       61.60428524
 O    8.0      36.59186363       48.16726208       61.52490616
 C    6.0      37.86860466       45.72508335       58.16062927
 O    8.0      38.52032185       44.71733093       58.56397629
 C    6.0      37.84124851       45.81996441       54.55148220
 O    8.0      37.03277111       46.69329643       54.29194927
 C    6.0      40.20536900       45.56140423       51.56757832
 O    8.0      40.96590042       44.65260029       51.94530964
 C    6.0      42.77891636       46.09488010       49.90069866
 O    8.0      42.95422077       47.14311600       50.49920559
 C    6.0      46.07447147       45.65735340       50.78232765
 O    8.0      46.87321186       46.44577026       51.25288010
 C    6.0      47.61293411       42.90295124       52.03268528
 O    8.0      48.77525806       42.87746429       52.45176315
 C    6.0      48.36198807       41.67250633       49.04862404
 O    8.0      47.63524532       42.28130341       48.34190845
 C    6.0      51.23404503       40.83850384       46.87922478
 O    8.0      51.50466919       39.84302044       47.51653194
 C    6.0      53.69529724       39.65188026       45.42847157
 O    8.0      54.44921970       40.65794945       45.52580833
 C    6.0      56.29518032       37.32347965       44.95703220
 O    8.0      57.40790844       36.94426537       45.15768051
 C    6.0      56.27287388       35.00091553       42.53389835
 O    8.0      56.32995129       34.35131550       43.61448288
 C    6.0      55.36202431       32.13924408       41.61332607
 O    8.0      55.56045532       30.95889568       41.73810482
 C    6.0      52.84955978       32.28633404       44.08103466
 O    8.0      52.03589439       31.55025959       44.66016293
 C    6.0      52.79483318       34.92274284       46.30717754
 O    8.0      52.79887199       35.70329189       45.32149315
 C    6.0      52.44936466       36.60738945       49.41469193
 O    8.0      52.72811413       35.70535183       50.15608311
 C    6.0      51.99505329       39.62665081       51.57777309
 O    8.0      51.17841244       40.14213085       50.83335400
 C    6.0      52.73931026       42.51214981       52.91225433
 O    8.0      53.94005775       42.34776020       52.83461571
 C    6.0      53.94526005       45.31999588       52.95255184
 O    8.0      53.87253284       45.02928734       54.13951397
 N    7.0      54.81523037       46.21099949       52.49434948
 H    1.0      54.71883297       46.48084641       51.52585030
 CA   6.0      55.83970547       46.89077377       53.34114552
 HA   1.0      56.31956577       46.18887424       54.02317524
 CB   6.0      56.97986126       47.42503166       52.45963097
 HB1  1.0      57.62379169       47.97268391       53.14776897
 HB2  1.0      56.57289982       48.02176476       51.64330482
 CG   6.0      57.79255867       46.24681473       51.92129612
 OD1  8.0      57.51444340       45.79515934       50.84395409
 ND2  7.0      58.73174667       45.74887753       52.74942875
 HD21 1.0      58.94688129       46.16010666       53.64648819
 HD22 1.0      59.19593334       44.90067959       52.45756149
 H000 1.0      58.71434153       58.29465576       53.30083743
 H000 1.0      55.40312179       47.69284238       53.91561878
 $end 
!comment atoms to be erased:
!polarization points to remove: