 $contrl units=angs local=boys runtyp=makefp 
       mult=1 icharg=-1 coord=cart icut=11 $end
 $system timlim=99999 mwords=200 $end
 $scf soscf=.f. dirscf=.t. diis=.t. CONV=1.0d-06 $end
 $basis gbasis=n31 ngauss=6 ndfunc=1 $end
 $DAMP IFTTYP(1)=2,0 IFTFIX(1)=1,1 thrsh=500.0 $end
 $MAKEFP POL=.t. DISP=.f. CHTR=.f. EXREP=.f. $end
 $data
 e_1074_18560
 C1
 C    6.0      57.67842770       46.03585243       70.03522396
 O    8.0      57.27025986       47.20175743       69.78383541
 N    7.0      58.69649410       45.81469536       70.88505268
 H    1.0      58.98662090       44.86816406       71.08508587
 CA   6.0      59.30516720       46.84401512       71.76884174
 HA   1.0      58.49970341       47.35111713       72.30004787
 CB   6.0      60.31105518       46.28676891       72.83491611
 HB1  1.0      60.72297573       47.15292931       73.35278034
 HB2  1.0      61.03946209       45.66285610       72.31697559
 CG   6.0      59.41164494       45.40276051       73.85392666
 HG1  1.0      58.72303009       44.76024628       73.30522060
 HG2  1.0      58.86537075       46.19448662       74.36663151
 CD   6.0      60.25498867       44.67963696       74.86230373
 OE1  8.0      59.84557629       44.45660114       76.00237370
 OE2  8.0      61.30847454       44.16439533       74.47440624
 H000 1.0      57.28713559       45.24173358       69.41861660
 H000 1.0      59.86169012       47.50936659       71.12733682
 $end 
!comment atoms to be erased:
!polarization points to remove: