 $contrl units=angs local=boys runtyp=makefp 
       mult=1 icharg=-1 coord=cart icut=11 $end
 $system timlim=99999 mwords=200 $end
 $scf soscf=.f. dirscf=.t. diis=.t. CONV=1.0d-06 $end
 $basis gbasis=n31 ngauss=6 ndfunc=1 $end
 $DAMP IFTTYP(1)=2,0 IFTFIX(1)=1,1 thrsh=500.0 $end
 $MAKEFP POL=.t. DISP=.f. CHTR=.f. EXREP=.f. $end
 $data
 e_247_3780
 C1
 C    6.0      93.16461563       50.91923714       56.62573814
 O    8.0      92.77332306       51.34179115       55.52483082
 N    7.0      92.70259857       49.86372948       57.19295979
 H    1.0      92.99716949       49.67724323       58.14087868
 CA   6.0      91.65767670       49.05641079       56.55360222
 HA   1.0      91.12573624       49.68650341       55.84077358
 CB   6.0      92.23304749       47.92353630       55.75225353
 HB1  1.0      93.02944183       48.29976082       55.11014938
 HB2  1.0      91.46392822       47.56794930       55.06660938
 CG   6.0      92.78417587       46.66472912       56.53837681
 HG1  1.0      91.89334869       46.05503082       56.68930531
 HG2  1.0      93.29420090       46.89408779       57.47399807
 CD   6.0      93.64770889       45.76702118       55.63115597
 OE1  8.0      93.33011627       44.58785534       55.38566589
 OE2  8.0      94.78906631       46.14125729       55.35859108
 H000 1.0      93.87539125       51.51455654       57.17740084
 H000 1.0      90.96970538       48.73313441       57.31919137
 $end 
!comment atoms to be erased:
!polarization points to remove: