 $contrl units=angs local=boys runtyp=makefp 
       mult=1 icharg=-1 coord=cart icut=11 $end
 $system timlim=99999 mwords=200 $end
 $scf soscf=.f. dirscf=.t. diis=.t. CONV=1.0d-06 $end
 $basis gbasis=n31 ngauss=6 ndfunc=1 $end
 $DAMP IFTTYP(1)=2,0 IFTFIX(1)=1,1 thrsh=500.0 $end
 $MAKEFP POL=.t. DISP=.f. CHTR=.f. EXREP=.f. $end
 $data
 e_258_3933
 C1
 C    6.0      77.06818104       43.53151321       64.36733723
 O    8.0      77.07879543       43.17768574       65.56872845
 N    7.0      78.16108227       43.64816189       63.63503933
 H    1.0      77.91442394       43.90706062       62.69046307
 CA   6.0      79.57516193       43.32870483       64.00368214
 HA   1.0      79.74678516       43.64623070       65.03218174
 CB   6.0      79.92399693       41.85541153       63.89678478
 HB1  1.0      79.30456638       41.25330925       64.56153393
 HB2  1.0      80.98337173       41.71466827       64.11130428
 CG   6.0      79.71910954       41.34609222       62.51308441
 HG1  1.0      79.88178730       42.07321167       61.71751499
 HG2  1.0      78.69895458       40.98434448       62.38458157
 CD   6.0      80.45951843       40.06525993       62.22491741
 OE1  8.0      79.85076427       39.03298378       62.46405602
 OE2  8.0      81.61260605       40.08727074       61.81650639
 H000 1.0      76.14664865       43.72869454       63.84213587
 H000 1.0      80.26052588       43.89415498       63.39173338
 $end 
!comment atoms to be erased:
!polarization points to remove: