 $contrl units=angs local=boys runtyp=makefp 
       mult=1 icharg=-1 coord=cart icut=11 $end
 $system timlim=99999 mwords=200 $end
 $scf soscf=.f. dirscf=.t. diis=.t. CONV=1.0d-06 $end
 $basis gbasis=n31 ngauss=6 ndfunc=1 $end
 $DAMP IFTTYP(1)=2,0 IFTFIX(1)=1,1 thrsh=500.0 $end
 $MAKEFP POL=.t. DISP=.f. CHTR=.f. EXREP=.f. $end
 $data
 e_342_5268
 C1
 C    6.0      79.38924313       53.80465508       76.60356045
 O    8.0      78.98757458       54.11850929       75.49493313
 N    7.0      78.55293751       53.42024803       77.51242161
 H    1.0      78.93734455       53.16874027       78.41190815
 CA   6.0      77.14670658       53.20060730       77.25641727
 HA   1.0      77.16175556       52.47405052       76.44401073
 CB   6.0      76.51235104       52.56451130       78.46312046
 HB1  1.0      76.40438557       53.27531338       79.28238392
 HB2  1.0      77.14957714       51.84483528       78.97702694
 CG   6.0      75.17724514       51.81953430       78.21491718
 HG1  1.0      75.29715061       50.80931187       77.82352924
 HG2  1.0      74.65874195       52.44492054       77.48816967
 CD   6.0      74.36106205       51.62426949       79.47747707
 OE1  8.0      73.42498302       52.38358021       79.71831799
 OE2  8.0      74.81185436       50.77821732       80.25402069
 H000 1.0      80.45160586       53.83480445       76.78907416
 H000 1.0      76.68418777       54.10193687       76.88544523
 $end 
!comment atoms to be erased:
!polarization points to remove: