 $contrl units=angs local=boys runtyp=makefp 
       mult=1 icharg=-1 coord=cart icut=11 $end
 $system timlim=99999 mwords=200 $end
 $scf soscf=.f. dirscf=.t. diis=.t. CONV=1.0d-06 $end
 $basis gbasis=n31 ngauss=6 ndfunc=1 $end
 $DAMP IFTTYP(1)=2,0 IFTFIX(1)=1,1 thrsh=500.0 $end
 $MAKEFP POL=.t. DISP=.f. CHTR=.f. EXREP=.f. $end
 $data
 e_64_948
 C1
 C    6.0      84.03430939       50.24477959       48.67196560
 O    8.0      83.71021271       50.51935196       47.50996113
 N    7.0      83.60296249       49.09196854       49.24961090
 H    1.0      84.08172607       48.76030922       50.07476330
 CA   6.0      82.91728973       48.04423332       48.53212357
 HA   1.0      82.30163574       48.48801136       47.74973869
 CB   6.0      84.01355743       47.17270374       47.87666321
 HB1  1.0      84.57305908       46.65955544       48.65880013
 HB2  1.0      84.63703156       47.84414291       47.28628635
 CG   6.0      83.45052719       46.15390301       46.91426754
 HG1  1.0      82.99530029       46.66872978       46.06820107
 HG2  1.0      82.74671555       45.51522255       47.44797230
 CD   6.0      84.57612991       45.30880928       46.28798962
 OE1  8.0      85.77421188       45.52857399       46.54073715
 OE2  8.0      84.24970627       44.39885616       45.48794270
 H000 1.0      84.70296567       50.94445072       49.14872339
 H000 1.0      82.28545412       47.43104814       49.15560300
 $end 
!comment atoms to be erased:
!polarization points to remove: