 $contrl units=angs local=boys runtyp=makefp 
       mult=1 icharg=-1 coord=cart icut=11 $end
 $system timlim=99999 mwords=200 $end
 $scf soscf=.f. dirscf=.t. diis=.t. CONV=1.0d-06 $end
 $basis gbasis=n31 ngauss=6 ndfunc=1 $end
 $DAMP IFTTYP(1)=2,0 IFTFIX(1)=1,1 thrsh=500.0 $end
 $MAKEFP POL=.t. DISP=.f. CHTR=.f. EXREP=.f. $end
 $data
 e_9_117
 C1
 C    6.0      92.15515137       48.27821255       71.86922550
 O    8.0      92.43564606       47.94904709       73.02112103
 N    7.0      93.09734344       48.65726948       71.00156307
 H    1.0      92.77923584       48.98722649       70.10154247
 CA   6.0      94.49666977       48.46024990       71.19250774
 HA   1.0      94.69758987       48.36902618       72.25993633
 CB   6.0      94.85986710       47.08647251       70.56132793
 HB1  1.0      95.93591690       47.12010860       70.39083958
 HB2  1.0      94.34766769       46.97998524       69.60508823
 CG   6.0      94.75004196       45.84348202       71.42015934
 HG1  1.0      93.69098663       45.77164173       71.66783810
 HG2  1.0      95.31021118       46.06938839       72.32750416
 CD   6.0      95.30080795       44.57485676       70.71918964
 OE1  8.0      94.62873459       44.06808376       69.77487087
 OE2  8.0      96.47350311       44.21027660       71.07856274
 H000 1.0      91.14821797       48.41771797       71.50789149
 H000 1.0      94.99696588       49.26637650       70.67889057
 $end 
!comment atoms to be erased:
!polarization points to remove: