 $contrl units=angs local=boys runtyp=makefp 
       mult=1 icharg=0 coord=cart icut=11 $end
 $system timlim=99999 mwords=200 $end
 $scf soscf=.f. dirscf=.t. diis=.t. CONV=1.0d-06 $end
 $basis gbasis=n31 ngauss=6 ndfunc=1 $end
 $DAMP IFTTYP(1)=2,0 IFTFIX(1)=1,1 thrsh=500.0 $end
 $MAKEFP POL=.t. DISP=.f. CHTR=.f. EXREP=.f. $end
 $data
 f_1031_17843
 C1
 C    6.0      59.42527294       51.85780525       79.27647114
 O    8.0      58.98239613       52.06695080       80.35526276
 N    7.0      59.16792393       50.76238155       78.55980396
 H    1.0      59.79434490       50.47034264       77.82331944
 CA   6.0      57.98865318       49.92359638       78.79027843
 HA   1.0      57.87791729       50.08791447       79.86212254
 CB   6.0      56.74451828       50.40358543       77.95033932
 HB1  1.0      56.52616978       51.45409107       78.14235210
 HB2  1.0      55.91752529       49.79008198       78.30781460
 CG   6.0      56.91332817       50.02165794       76.46072865
 CD1  6.0      56.13814831       48.96167755       75.94699383
 HD1  1.0      55.35630703       48.47419262       76.51045322
 CE1  6.0      56.22825623       48.71665478       74.55720425
 HE1  1.0      55.65592289       47.92279243       74.10044193
 CZ   6.0      57.12940216       49.41132545       73.78543377
 HZ   1.0      57.17700958       49.13331509       72.74291515
 CE2  6.0      57.95947552       50.40996552       74.35884953
 HE2  1.0      58.69577408       50.94684124       73.77916813
 CD2  6.0      57.87565708       50.72942734       75.69511890
 HD2  1.0      58.54214668       51.50257111       76.04788303
 H000 1.0      60.12900108       52.54513254       78.83342847
 H000 1.0      58.11119007       48.85771316       78.67706814
 $end 
!comment atoms to be erased:
!polarization points to remove: