 $contrl units=angs local=boys runtyp=makefp 
       mult=1 icharg=0 coord=cart icut=11 $end
 $system timlim=99999 mwords=200 $end
 $scf soscf=.f. dirscf=.t. diis=.t. CONV=1.0d-06 $end
 $basis gbasis=n31 ngauss=6 ndfunc=1 $end
 $DAMP IFTTYP(1)=2,0 IFTFIX(1)=1,1 thrsh=500.0 $end
 $MAKEFP POL=.t. DISP=.f. CHTR=.f. EXREP=.f. $end
 $data
 f_1028_17795
 C1
 C    6.0      60.86608410       58.56319427       75.27949810
 O    8.0      61.81369305       58.75320911       76.03936672
 N    7.0      59.58669186       58.89485359       75.63652515
 H    1.0      58.92392635       58.84452343       74.87605572
 CA   6.0      59.13843632       59.57379341       76.88082218
 HA   1.0      59.84406948       60.19542217       77.43197918
 CB   6.0      57.88230896       60.42991638       76.43998623
 HB1  1.0      57.40915298       60.73857307       77.37215519
 HB2  1.0      57.10701942       59.75080490       76.08524799
 CG   6.0      58.25609684       61.63703918       75.64076900
 CD1  6.0      59.42543507       62.36091137       75.89809895
 HD1  1.0      60.12494564       61.99563026       76.63543224
 CE1  6.0      59.77049351       63.53232384       75.19632816
 HE1  1.0      60.69749355       64.07413960       75.31252384
 CZ   6.0      58.92774105       64.02493954       74.23826694
 HZ   1.0      59.19631481       64.89815712       73.66228580
 CE2  6.0      57.70869255       63.35446835       74.02553082
 HE2  1.0      56.94033623       63.79222393       73.40553761
 CD2  6.0      57.30484486       62.16768265       74.71386433
 HD2  1.0      56.35341167       61.65799141       74.67663288
 H000 1.0      61.01985701       57.92302372       74.42482012
 H000 1.0      58.90424663       58.88563709       77.67802665
 $end 
!comment atoms to be erased:
!polarization points to remove: