 $contrl units=angs local=boys runtyp=makefp 
       mult=1 icharg=0 coord=cart icut=11 $end
 $system timlim=99999 mwords=200 $end
 $scf soscf=.f. dirscf=.t. diis=.t. CONV=1.0d-06 $end
 $basis gbasis=n31 ngauss=6 ndfunc=1 $end
 $DAMP IFTTYP(1)=2,0 IFTFIX(1)=1,1 thrsh=500.0 $end
 $MAKEFP POL=.t. DISP=.f. CHTR=.f. EXREP=.f. $end
 $data
 f_182_2798
 C1
 C    6.0      69.62240696       64.10348415       55.83714485
 O    8.0      70.32066822       64.72864628       56.58593655
 N    7.0      68.38202953       64.42792892       55.40379524
 H    1.0      67.86777973       63.68568420       54.95134354
 CA   6.0      67.59471416       65.64323902       55.84179401
 HA   1.0      67.92063236       66.50096416       55.25341511
 CB   6.0      66.16642475       65.34982204       55.33006668
 HB1  1.0      65.59324741       64.63088989       55.91547966
 HB2  1.0      66.24199390       64.86223698       54.35813427
 CG   6.0      65.32074451       66.59245968       55.15567303
 CD1  6.0      64.68597889       67.17743397       56.28726959
 HD1  1.0      64.72465038       66.72472477       57.26704121
 CE1  6.0      63.76471996       68.23562145       56.09477520
 HE1  1.0      63.16914082       68.76873493       56.82105064
 CZ   6.0      63.66296291       68.70823383       54.76731777
 HZ   1.0      62.99821377       69.48312283       54.41513062
 CE2  6.0      64.26598072       68.13262463       53.63898277
 HE2  1.0      64.15771008       68.40201855       52.59873867
 CD2  6.0      65.08634090       67.04048634       53.83613110
 HD2  1.0      65.50125599       66.55538559       52.96496868
 H000 1.0      69.88084583       63.08086210       55.61044596
 H000 1.0      67.57123251       65.81480439       56.90666623
 $end 
!comment atoms to be erased:
!polarization points to remove: