 $contrl units=angs local=boys runtyp=makefp 
       mult=1 icharg=0 coord=cart icut=11 $end
 $system timlim=99999 mwords=200 $end
 $scf soscf=.f. dirscf=.t. diis=.t. CONV=1.0d-06 $end
 $basis gbasis=n31 ngauss=6 ndfunc=1 $end
 $DAMP IFTTYP(1)=2,0 IFTFIX(1)=1,1 thrsh=500.0 $end
 $MAKEFP POL=.t. DISP=.f. CHTR=.f. EXREP=.f. $end
 $data
 f_250_3812
 C1
 C    6.0      83.82293701       46.08623981       58.43772411
 O    8.0      84.08176422       45.94696522       59.56310272
 N    7.0      82.58979797       45.76829910       58.01717758
 H    1.0      82.50394821       45.69246769       57.01369286
 CA   6.0      81.45017624       45.42283058       58.91879559
 HA   1.0      81.81404114       44.87006664       59.78491783
 CB   6.0      80.77686310       46.70751095       59.49436188
 HB1  1.0      81.51638031       47.48150349       59.69962120
 HB2  1.0      80.36741257       46.47418976       60.47722816
 CG   6.0      79.62520123       47.35370159       58.75762463
 CD1  6.0      78.28591824       47.25634098       59.19443607
 HD1  1.0      78.08751583       46.59274101       60.02309322
 CE1  6.0      77.30699062       47.98489571       58.53253365
 HE1  1.0      76.27377033       47.78617859       58.77617836
 CZ   6.0      77.60220051       48.66973400       57.38389969
 HZ   1.0      76.82139874       49.13518906       56.80071354
 CE2  6.0      78.93253803       48.83474827       56.98313713
 HE2  1.0      79.14632320       49.35396671       56.06058121
 CD2  6.0      79.94007587       48.17149162       57.66386509
 HD2  1.0      80.97200394       48.16040039       57.34539509
 H000 1.0      84.60656147       46.25420667       57.71546464
 H000 1.0      80.72891838       44.74626788       58.48753126
 $end 
!comment atoms to be erased:
!polarization points to remove: