 $contrl units=angs local=boys runtyp=makefp 
       mult=1 icharg=0 coord=cart icut=11 $end
 $system timlim=99999 mwords=200 $end
 $scf soscf=.f. dirscf=.t. diis=.t. CONV=1.0d-06 $end
 $basis gbasis=n31 ngauss=6 ndfunc=1 $end
 $DAMP IFTTYP(1)=2,0 IFTFIX(1)=1,1 thrsh=500.0 $end
 $MAKEFP POL=.t. DISP=.f. CHTR=.f. EXREP=.f. $end
 $data
 f_265_4021
 C1
 C    6.0      96.94055557       51.50851727       61.72843933
 O    8.0      97.03197479       51.25030994       62.97280312
 C    6.0      99.22100067       54.16460037       60.71978092
 O    8.0      99.09049988       54.18911457       59.54044819
 N    7.0      99.53159332       55.31970978       61.33552074
 H    1.0      99.56697464       55.21447182       62.33939648
 CA   6.0      99.53052521       56.64707184       60.72194576
 HA   1.0     100.17444611       56.66893005       59.84273434
 CB   6.0      98.05852890       56.95637226       60.23245335
 HB1  1.0      97.84667969       56.52664185       59.25339699
 HB2  1.0      97.83388138       58.01292419       60.08640289
 CG   6.0      96.95489883       56.47093296       61.10588074
 CD1  6.0      96.53158188       57.09491730       62.30828285
 HD1  1.0      97.09896088       57.94517040       62.65692711
 CE1  6.0      95.42541504       56.59653664       63.02426338
 HE1  1.0      95.15718460       56.99725628       63.99063587
 CZ   6.0      94.75358963       55.47213078       62.46476173
 HZ   1.0      93.97048950       55.12660980       63.12339306
 CE2  6.0      95.11037827       54.88098621       61.28951550
 HE2  1.0      94.62518692       54.00423050       60.88667393
 CD2  6.0      96.18061066       55.46026707       60.55617332
 HD2  1.0      96.34027481       55.07834911       59.55865383
 H000 1.0      97.83084682       52.11537618       61.67327914
 H000 1.0      99.85196817       57.39375596       61.43122437
 $end 
!comment atoms to be erased:
!polarization points to remove: