 $contrl units=angs local=boys runtyp=makefp 
       mult=1 icharg=0 coord=cart icut=11 $end
 $system timlim=99999 mwords=200 $end
 $scf soscf=.f. dirscf=.t. diis=.t. CONV=1.0d-06 $end
 $basis gbasis=n31 ngauss=6 ndfunc=1 $end
 $DAMP IFTTYP(1)=2,0 IFTFIX(1)=1,1 thrsh=500.0 $end
 $MAKEFP POL=.t. DISP=.f. CHTR=.f. EXREP=.f. $end
 $data
 f_299_4551
 C1
 C    6.0      70.21926403       47.69042492       75.49597263
 O    8.0      69.77302074       46.63434505       75.05495548
 N    7.0      71.41224384       47.74166107       76.15406513
 H    1.0      71.65669918       48.64727497       76.52849674
 CA   6.0      72.44556904       46.72074318       76.16474628
 HA   1.0      71.87694073       45.79534531       76.07306004
 CB   6.0      73.40928555       46.87886238       75.03025532
 HB1  1.0      72.96050549       46.54413700       74.09502506
 HB2  1.0      74.22701359       46.17686749       75.19342899
 CG   6.0      73.91317844       48.31236839       74.75966930
 CD1  6.0      75.18240452       48.59846115       75.13542652
 HD1  1.0      75.76699734       47.90947914       75.72699070
 CE1  6.0      75.71340084       49.90545750       74.97395039
 HE1  1.0      76.71541691       50.12156487       75.31404018
 CZ   6.0      74.87547398       50.89261532       74.39939976
 HZ   1.0      75.15652180       51.89912319       74.12673473
 CE2  6.0      73.50711346       50.62879562       74.00321484
 HE2  1.0      72.78174877       51.33712292       73.63102436
 CD2  6.0      73.06069851       49.33290482       74.26826000
 HD2  1.0      72.12528706       48.96503448       73.87320995
 H000 1.0      69.64107508       48.59886614       75.42985921
 H000 1.0      73.05912409       46.75164357       77.05161395
 $end 
!comment atoms to be erased:
!polarization points to remove: