 $contrl units=angs local=boys runtyp=makefp 
       mult=1 icharg=0 coord=cart icut=11 $end
 $system timlim=99999 mwords=200 $end
 $scf soscf=.f. dirscf=.t. diis=.t. CONV=1.0d-06 $end
 $basis gbasis=n31 ngauss=6 ndfunc=1 $end
 $DAMP IFTTYP(1)=2,0 IFTFIX(1)=1,1 thrsh=500.0 $end
 $MAKEFP POL=.t. DISP=.f. CHTR=.f. EXREP=.f. $end
 $data
 f_296_4503
 C1
 C    6.0      67.14380741       54.92824554       71.03806019
 O    8.0      66.20557308       55.00607967       71.78727627
 N    7.0      67.37755299       53.81546974       70.31064510
 H    1.0      68.29102039       53.72222424       69.88996029
 CA   6.0      66.50730610       52.57506847       70.33196926
 HA   1.0      65.45744419       52.81566143       70.49932957
 CB   6.0      66.59113407       51.96280479       68.90915394
 HB1  1.0      65.95607281       51.07721806       68.93224239
 HB2  1.0      67.56860256       51.51134014       68.73936176
 CG   6.0      66.31155491       52.88924694       67.83906460
 CD1  6.0      65.15374660       53.72832298       67.87734509
 HD1  1.0      64.43252087       53.70858669       68.68099689
 CE1  6.0      64.86173153       54.63029385       66.86750889
 HE1  1.0      63.91785145       55.15516281       66.87183857
 CZ   6.0      65.67713261       54.65428829       65.72031498
 HZ   1.0      65.34389973       55.29475689       64.91709232
 CE2  6.0      66.82781696       53.88556957       65.63294888
 HE2  1.0      67.45827198       53.94903183       64.75836277
 CD2  6.0      67.15791225       53.02321911       66.71638966
 HD2  1.0      68.01208973       52.37705231       66.57769680
 H000 1.0      67.93798893       55.64329512       71.18610984
 H000 1.0      66.74603368       51.87312394       71.11569237
 $end 
!comment atoms to be erased:
!polarization points to remove: