 $contrl units=angs local=boys runtyp=makefp 
       mult=1 icharg=0 coord=cart icut=11 $end
 $system timlim=99999 mwords=200 $end
 $scf soscf=.f. dirscf=.t. diis=.t. CONV=1.0d-06 $end
 $basis gbasis=n31 ngauss=6 ndfunc=1 $end
 $DAMP IFTTYP(1)=2,0 IFTFIX(1)=1,1 thrsh=500.0 $end
 $MAKEFP POL=.t. DISP=.f. CHTR=.f. EXREP=.f. $end
 $data
 f_352_5403
 C1
 C    6.0      85.79198837       61.93823814       78.41653347
 O    8.0      85.54042816       61.43262863       79.49743748
 N    7.0      86.84118271       61.51782036       77.64428616
 H    1.0      86.90694809       61.87653065       76.70241833
 CA   6.0      87.99684525       60.67170620       78.07220936
 HA   1.0      87.74501801       60.48953056       79.11695004
 CB   6.0      88.08362961       59.31733131       77.21408367
 HB1  1.0      88.39950562       59.52718258       76.19217396
 HB2  1.0      87.07660675       58.90563011       77.14693546
 CG   6.0      89.09873962       58.34257603       77.82875538
 CD1  6.0      88.52947235       57.30188370       78.51866245
 HD1  1.0      87.45262146       57.26859570       78.59414577
 CE1  6.0      89.37612534       56.27256870       78.94101620
 HE1  1.0      88.96488190       55.43472290       79.48441982
 CZ   6.0      90.77421188       56.31541729       78.70686054
 HZ   1.0      91.55458450       55.61885834       78.97560596
 CE2  6.0      91.30386353       57.42521763       78.06076527
 HE2  1.0      92.36621857       57.52496719       77.89391041
 CD2  6.0      90.44820786       58.34371090       77.47117519
 HD2  1.0      90.84827423       59.13523674       76.85486317
 H000 1.0      85.28978519       62.83863793       78.09871106
 H000 1.0      88.89013929       61.27637359       78.05371626
 $end 
!comment atoms to be erased:
!polarization points to remove: