 $contrl units=angs local=boys runtyp=makefp 
       mult=1 icharg=0 coord=cart icut=11 $end
 $system timlim=99999 mwords=200 $end
 $scf soscf=.f. dirscf=.t. diis=.t. CONV=1.0d-06 $end
 $basis gbasis=n31 ngauss=6 ndfunc=1 $end
 $DAMP IFTTYP(1)=2,0 IFTFIX(1)=1,1 thrsh=500.0 $end
 $MAKEFP POL=.t. DISP=.f. CHTR=.f. EXREP=.f. $end
 $data
 f_63_928
 C1
 C    6.0      87.42389679       51.73388958       49.03011322
 O    8.0      87.73004532       51.78936481       50.21391869
 N    7.0      86.19604111       51.48906231       48.54392052
 H    1.0      85.99155426       51.50634289       47.55498886
 CA   6.0      84.94812012       51.20097637       49.32352066
 HA   1.0      85.22687912       50.64104080       50.21619320
 CB   6.0      84.21049118       52.49901295       49.70823765
 HB1  1.0      83.27924728       52.17716217       50.17439365
 HB2  1.0      83.98954391       52.98530579       48.75807762
 CG   6.0      85.00511169       53.42517376       50.64022064
 CD1  6.0      85.99962234       54.29404736       50.11495590
 HD1  1.0      86.24794006       54.23339844       49.06564236
 CE1  6.0      86.70557022       55.18206596       50.97225666
 HE1  1.0      87.49727249       55.79272270       50.56393147
 CZ   6.0      86.29154205       55.28989792       52.31916428
 HZ   1.0      86.67768478       56.05239868       52.97937870
 CE2  6.0      85.21148682       54.51806545       52.76965141
 HE2  1.0      84.81323242       54.68177795       53.76010895
 CD2  6.0      84.57235336       53.56720924       51.98060036
 HD2  1.0      83.72240067       53.02963257       52.37431526
 H000 1.0      88.18222037       51.93390630       48.28925050
 H000 1.0      84.27946384       50.50130524       48.84676287
 $end 
!comment atoms to be erased:
!polarization points to remove: