 $contrl units=angs local=boys runtyp=makefp 
       mult=1 icharg=0 coord=cart icut=11 $end
 $system timlim=99999 mwords=200 $end
 $scf soscf=.f. dirscf=.t. diis=.t. CONV=1.0d-06 $end
 $basis gbasis=n31 ngauss=6 ndfunc=1 $end
 $DAMP IFTTYP(1)=2,0 IFTFIX(1)=1,1 thrsh=500.0 $end
 $MAKEFP POL=.t. DISP=.f. CHTR=.f. EXREP=.f. $end
 $data
 f_665_11197
 C1
 C    6.0      68.72701168       56.10161304       83.18534851
 O    8.0      69.77141857       56.47030354       83.65966797
 N    7.0      67.53910542       55.87653160       83.86310577
 H    1.0      66.73532009       55.46820164       83.40782166
 CA   6.0      67.50285625       56.12355709       85.32108307
 HA   1.0      68.36936474       55.65633297       85.78899384
 CB   6.0      67.64503002       57.69321442       85.47954559
 HB1  1.0      68.17880154       58.15401554       84.64836121
 HB2  1.0      68.30929279       57.93034077       86.31059647
 CG   6.0      66.38246059       58.45111370       85.74104309
 CD1  6.0      65.93437672       58.75740528       87.03884125
 HD1  1.0      66.66615009       58.53345871       87.80092239
 CE1  6.0      64.68571186       59.23357010       87.30569839
 HE1  1.0      64.29854870       59.31706429       88.31047058
 CZ   6.0      63.80045414       59.41701412       86.24729156
 HZ   1.0      62.77506351       59.72082615       86.39785767
 CE2  6.0      64.11667347       59.06292439       84.89519119
 HE2  1.0      63.38855267       59.20459747       84.11022186
 CD2  6.0      65.39562702       58.53273392       84.70802307
 HD2  1.0      65.65319538       58.11620235       83.74544144
 H000 1.0      68.70664792       55.95594439       82.11656188
 H000 1.0      66.69067024       55.67069387       85.86808187
 $end 
!comment atoms to be erased:
!polarization points to remove: