 $contrl units=angs local=boys runtyp=makefp 
       mult=1 icharg=0 coord=cart icut=11 $end
 $system timlim=99999 mwords=200 $end
 $scf soscf=.f. dirscf=.t. diis=.t. CONV=1.0d-06 $end
 $basis gbasis=n31 ngauss=6 ndfunc=1 $end
 $DAMP IFTTYP(1)=2,0 IFTFIX(1)=1,1 thrsh=500.0 $end
 $MAKEFP POL=.t. DISP=.f. CHTR=.f. EXREP=.f. $end
 $data
 f_662_11149
 C1
 C    6.0      67.96111584       59.86336708       76.01378918
 O    8.0      67.78863430       58.69092941       75.55153370
 N    7.0      69.20716763       60.25381088       76.35832310
 H    1.0      69.27272320       61.23797894       76.57560825
 CA   6.0      70.44489384       59.44034100       76.30220890
 HA   1.0      70.21557331       58.57109547       75.68583012
 CB   6.0      71.64520741       60.13746262       75.65297604
 HB1  1.0      71.32962704       60.80257893       74.84915257
 HB2  1.0      72.26891994       59.36541080       75.20240307
 CG   6.0      72.54034519       61.02277756       76.51076794
 CD1  6.0      72.25706577       62.41372108       76.55668736
 HD1  1.0      71.40796185       62.81501293       76.02341175
 CE1  6.0      73.01506519       63.24574471       77.39353657
 HE1  1.0      72.84204960       64.31179523       77.39252567
 CZ   6.0      74.02388096       62.73088932       78.20911884
 HZ   1.0      74.54343319       63.35052490       78.92501354
 CE2  6.0      74.35952663       61.36815548       78.14794064
 HE2  1.0      75.11435986       61.01462364       78.83470058
 CD2  6.0      73.61684322       60.49918652       77.27165699
 HD2  1.0      73.83896351       59.44311142       77.31367588
 H000 1.0      67.08790258       60.48899880       76.11390138
 H000 1.0      70.72873847       58.97099771       77.23123420
 $end 
!comment atoms to be erased:
!polarization points to remove: