 $contrl units=angs local=boys runtyp=makefp 
       mult=1 icharg=0 coord=cart icut=11 $end
 $system timlim=99999 mwords=200 $end
 $scf soscf=.f. dirscf=.t. diis=.t. CONV=1.0d-06 $end
 $basis gbasis=n31 ngauss=6 ndfunc=1 $end
 $DAMP IFTTYP(1)=2,0 IFTFIX(1)=1,1 thrsh=500.0 $end
 $MAKEFP POL=.t. DISP=.f. CHTR=.f. EXREP=.f. $end
 $data
 g_1079_18641
 C1
 C    6.0      61.14837170       53.91273975       68.77378941
 O    8.0      61.76382542       54.98303413       68.83542538
 N    7.0      60.89615345       53.23595047       67.62459278
 H    1.0      60.54751873       52.29566574       67.74467945
 CA   6.0      61.14630222       53.73715878       66.27121449
 HA1  1.0      61.53000355       54.74177361       66.44906521
 HA2  1.0      60.21686077       53.72478485       65.70193768
 H000 1.0      60.89439813       53.40399746       69.69064142
 H000 1.0      61.87979148       53.26286406       65.63798710
 $end 
!comment atoms to be erased:
!polarization points to remove: