 $contrl units=angs local=boys runtyp=makefp 
       mult=1 icharg=0 coord=cart icut=11 $end
 $system timlim=99999 mwords=200 $end
 $scf soscf=.f. dirscf=.t. diis=.t. CONV=1.0d-06 $end
 $basis gbasis=n31 ngauss=6 ndfunc=1 $end
 $DAMP IFTTYP(1)=2,0 IFTFIX(1)=1,1 thrsh=500.0 $end
 $MAKEFP POL=.t. DISP=.f. CHTR=.f. EXREP=.f. $end
 $data
 g_1080_18648
 C1
 C    6.0      62.21933842       53.04330349       65.34485340
 O    8.0      62.60381222       53.61026287       64.34150219
 N    7.0      62.75297642       51.85862541       65.72941303
 H    1.0      62.44715214       51.32549286       66.53088093
 CA   6.0      63.86603832       51.23581886       64.97942448
 HA1  1.0      64.46644306       50.61698437       65.64625263
 HA2  1.0      64.56918240       52.00543404       64.66101170
 H000 1.0      61.48584916       53.51759821       65.97808079
 H000 1.0      63.55528616       50.62028991       64.14966782
 $end 
!comment atoms to be erased:
!polarization points to remove: