 $contrl units=angs local=boys runtyp=makefp 
       mult=1 icharg=0 coord=cart icut=11 $end
 $system timlim=99999 mwords=200 $end
 $scf soscf=.f. dirscf=.t. diis=.t. CONV=1.0d-06 $end
 $basis gbasis=n31 ngauss=6 ndfunc=1 $end
 $DAMP IFTTYP(1)=2,0 IFTFIX(1)=1,1 thrsh=500.0 $end
 $MAKEFP POL=.t. DISP=.f. CHTR=.f. EXREP=.f. $end
 $data
 g_1026_17750
 C1
 C    6.0      58.49577904       60.82165718       70.08525372
 O    8.0      58.85650635       61.60220623       70.92251301
 C    6.0      57.20786095       58.26236725       72.28102207
 O    8.0      57.05462456       58.08661461       73.47981930
 N    7.0      57.75605202       57.38817215       71.43412113
 H    1.0      57.66475677       57.65004635       70.46294689
 CA   6.0      58.32087994       56.12914562       71.76859379
 HA1  1.0      58.77574444       55.59874535       70.93201160
 HA2  1.0      57.54252911       55.54605961       72.26082325
 H000 1.0      57.84367174       60.33584589       70.79425468
 H000 1.0      59.11509005       56.14988527       72.49848355
 $end 
!comment atoms to be erased:
!polarization points to remove: