 $contrl units=angs local=boys runtyp=makefp 
       mult=1 icharg=0 coord=cart icut=11 $end
 $system timlim=99999 mwords=200 $end
 $scf soscf=.f. dirscf=.t. diis=.t. CONV=1.0d-06 $end
 $basis gbasis=n31 ngauss=6 ndfunc=1 $end
 $DAMP IFTTYP(1)=2,0 IFTFIX(1)=1,1 thrsh=500.0 $end
 $MAKEFP POL=.t. DISP=.f. CHTR=.f. EXREP=.f. $end
 $data
 g_189_2890
 C1
 C    6.0      72.77905941       68.26027393       64.92777348
 O    8.0      73.24339390       68.62081051       66.01514339
 C    6.0      74.75221157       70.48981190       63.50633144
 O    8.0      75.86461544       71.05904102       63.55744362
 C    6.0      73.77315998       73.38550091       62.32270718
 O    8.0      74.48827267       74.38562870       62.38013268
 C    6.0      73.17611217       72.95883656       58.71748924
 O    8.0      72.01351643       72.49948025       58.85171890
 C    6.0      73.79732609       74.48724270       55.26778221
 O    8.0      74.94099140       74.93175983       55.50197124
 C    6.0      73.05376530       75.90716839       52.13181019
 O    8.0      71.84435368       75.82846165       52.17792034
 C    6.0      72.27049351       77.03120708       49.12639618
 O    8.0      72.50374317       75.92645168       48.61973286
 C    6.0      72.19958782       77.76992321       46.40911579
 O    8.0      72.86909580       78.82273197       46.32791042
 C    6.0      73.73231411       77.52439976       43.77363682
 O    8.0      72.73260593       78.05799961       43.38212967
 C    6.0      75.84715366       78.41270924       40.82478523
 O    8.0      77.01361179       78.10565472       41.04307652
 C    6.0      76.85693264       78.58163357       37.57183552
 O    8.0      76.27912998       79.67025280       37.24601746
 C    6.0      78.55551243       78.38695049       34.80782509
 O    8.0      78.55003834       79.17894840       33.86526585
 C    6.0      77.94464588       74.95819569       33.29871655
 O    8.0      78.67913723       74.29188251       34.09812450
 C    6.0      77.74847507       73.16320896       30.28759956
 O    8.0      77.44627476       74.07392979       29.54501152
 C    6.0      79.44336414       70.38574696       28.16324234
 O    8.0      79.50195789       69.51680660       29.02953625
 C    6.0      81.29535675       69.18071270       25.35217285
 O    8.0      81.25686646       70.05187511       24.51116562
 C    6.0      84.04718399       67.35466480       24.18509007
 O    8.0      83.86205673       66.27638340       24.75687981
 C    6.0      86.61264420       65.71649075       23.19096804
 O    8.0      87.31931686       66.54145241       23.77637863
 C    6.0      88.78353119       62.71206379       23.33917856
 O    8.0      88.91141891       62.82718658       22.11077929
 C    6.0      89.59136963       59.73914623       22.65202045
 O    8.0      90.00720978       59.46295261       21.53294563
 C    6.0      86.16596222       58.59636307       22.15971470
 O    8.0      85.35602570       57.67488480       21.92632914
 C    6.0      84.02465820       61.47338867       23.33407164
 O    8.0      84.95279312       61.93370342       23.97486210
 C    6.0      82.36122131       62.98343658       25.60530186
 O    8.0      82.43177414       61.85786724       26.10159874
 C    6.0      81.82758331       65.46363831       28.21769238
 O    8.0      81.98371887       66.59213543       27.76460171
 C    6.0      80.78027725       66.52124405       31.12556934
 O    8.0      81.39724731       65.79975605       31.92328453
 C    6.0      80.52202225       69.85988140       32.55266190
 O    8.0      79.77778912       70.39802074       31.74862862
 C    6.0      80.61618805       71.76055431       35.69992542
 O    8.0      81.52221680       71.14259243       36.24276638
 C    6.0      80.14886856       74.73310947       37.83593178
 O    8.0      79.35422421       75.45334339       37.20266819
 C    6.0      79.78806973       75.70383549       41.47945881
 O    8.0      80.86273193       75.22357464       41.81527615
 C    6.0      78.30825329       76.60678387       44.74737644
 O    8.0      77.09961414       76.49218082       44.41840172
 C    6.0      78.64629269       77.10735798       48.49654198
 O    8.0      79.88984585       77.16627598       48.42461586
 C    6.0      77.84179211       76.76856518       52.15264320
 O    8.0      76.68316364       76.34707928       51.93223953
 C    6.0      78.33895206       76.21763706       55.68439007
 O    8.0      79.47498798       76.43653393       56.05375290
 C    6.0      77.07114697       76.03082180       58.86871338
 O    8.0      76.37481213       75.10811329       58.76259327
 C    6.0      77.73377895       76.30975246       62.63644218
 O    8.0      78.65665913       77.09866047       62.90595055
 C    6.0      77.78345585       76.48308277       65.85071087
 O    8.0      77.91072369       77.31725216       66.74115658
 C    6.0      79.92662907       73.63735676       66.87650204
 O    8.0      81.01085663       73.35679531       67.35071659
 C    6.0      80.10398865       70.83779812       64.92988110
 O    8.0      80.69869995       69.77807522       65.04391193
 C    6.0      82.31447220       71.08984470       62.70364285
 O    8.0      82.95587540       72.08942890       62.93849945
 C    6.0      85.09231567       69.98297215       61.66566849
 O    8.0      86.25642776       70.39262295       61.82279587
 C    6.0      85.35938263       72.09520817       59.28716660
 O    8.0      86.17513657       72.61403561       58.52377415
 C    6.0      85.67108154       74.37041759       61.99615479
 O    8.0      86.69660568       75.00463963       61.97789669
 C    6.0      87.51838684       73.28234196       64.22702312
 O    8.0      88.37390900       73.59560490       65.06001949
 C    6.0      89.76312637       72.15341091       61.75425053
 O    8.0      90.60567856       71.39125347       61.33679390
 C    6.0      90.72929382       72.90948391       58.90836239
 O    8.0      90.74943542       72.27965832       57.87040710
 C    6.0      93.98569107       71.97824001       59.98521328
 O    8.0      94.82667923       71.25409603       59.47189331
 C    6.0      93.60248566       69.38502789       61.79544926
 O    8.0      94.22554016       68.34670544       62.03168392
 C    6.0      92.86134720       67.62647629       59.14732456
 O    8.0      92.64989853       66.52331829       58.66969585
 C    6.0      96.27824783       68.51926327       58.02701473
 O    8.0      96.61241531       69.68860149       57.70469666
 C    6.0      99.28926468       67.26477623       57.79400349
 O    8.0      98.75213623       66.54383183       56.96809769
 C    6.0     102.88333893       66.80170059       56.85829639
 O    8.0     103.38123322       65.71220875       56.68142796
 C    6.0     105.41099548       66.32730007       58.69474411
 O    8.0     106.52885437       65.79319000       58.60007763
 C    6.0     104.62970734       63.17846298       59.32665825
 O    8.0     105.14181137       62.19175339       59.83996868
 C    6.0     105.83385468       61.94939613       56.60489082
 O    8.0     106.25940323       62.28695393       55.50313473
 C    6.0     108.19765091       59.89383698       56.55522346
 O    8.0     109.21695709       59.48132992       56.10386848
 C    6.0     105.39564133       57.56495476       55.43577194
 O    8.0     104.55986023       58.22238445       56.06901169
 C    6.0     102.66004562       55.93581676       55.03841877
 O    8.0     103.19913864       55.40458202       55.97743988
 C    6.0      99.18872833       54.93344784       55.35096169
 O    8.0      98.74492645       55.31979561       54.21151638
 C    6.0      96.39358521       52.77504444       56.83734417
 O    8.0      96.85581207       52.61737823       57.94325829
 N    7.0      95.14368057       52.36627102       56.43568993
 H    1.0      94.78801727       52.67011166       55.54055214
 CA   6.0      94.17020798       51.76148415       57.40622044
 HA   1.0      94.63392258       51.09035492       58.12917233
 CB   6.0      93.47599030       52.84790516       58.20477962
 HB   1.0      94.25724030       53.30174923       58.81450653
 CG1  6.0      92.61699677       53.93750668       57.53233433
 HG11 1.0      91.66557312       53.64079952       57.09093094
 HG12 1.0      93.20747375       54.45611954       56.77702904
 HG13 1.0      92.37220764       54.70634937       58.26517105
 CG2  6.0      92.42918015       52.30247021       59.22793388
 HG21 1.0      92.97134399       51.69133186       59.94949818
 HG22 1.0      91.60478592       51.75980568       58.76533508
 HG23 1.0      91.98408127       53.10431480       59.81703758
 H000 1.0      73.65511118       67.72543214       64.59548376
 H000 1.0      93.45943236       51.16616475       56.85455774
 $end 
!comment atoms to be erased:
!polarization points to remove: