 $contrl units=angs local=boys runtyp=makefp 
       mult=1 icharg=0 coord=cart icut=11 $end
 $system timlim=99999 mwords=200 $end
 $scf soscf=.f. dirscf=.t. diis=.t. CONV=1.0d-06 $end
 $basis gbasis=n31 ngauss=6 ndfunc=1 $end
 $DAMP IFTTYP(1)=2,0 IFTFIX(1)=1,1 thrsh=500.0 $end
 $MAKEFP POL=.t. DISP=.f. CHTR=.f. EXREP=.f. $end
 $data
 g_267_4056
 C1
 C    6.0     100.00446320       57.74798870       61.76771164
 O    8.0      99.91086960       57.43904114       62.91616917
 C    6.0      99.34690475       60.74497700       62.97166348
 O    8.0      98.27724457       60.35215855       62.56402493
 C    6.0      97.58283615       61.91120148       65.47526836
 O    8.0      96.43472672       62.30459690       65.66881657
 N    7.0      98.13493729       60.84971905       66.11134052
 H    1.0      99.09936905       60.66513538       65.87490559
 CA   6.0      97.45508194       59.99974251       67.17239857
 HA   1.0      96.37876511       60.03523827       67.00391293
 CB   6.0      97.94370651       58.54491711       67.10272312
 HB   1.0      99.03274536       58.57217789       67.13963985
 CG1  6.0      97.51789093       57.77444839       68.34566593
 HG11 1.0      97.99182892       58.18609715       69.23674107
 HG12 1.0      97.86275864       56.76050663       68.14297199
 HG13 1.0      96.43430710       57.89264679       68.34601879
 CG2  6.0      97.49401093       57.75853634       65.86412907
 HG21 1.0      97.82117844       56.72059536       65.92514515
 HG22 1.0      97.78715134       58.32264423       64.97871876
 HG23 1.0      96.40415192       57.77261257       65.85422039
 H000 1.0      99.68471782       58.65703433       62.25282794
 H000 1.0      97.61040345       60.48025998       68.12577000
 $end 
!comment atoms to be erased:
!polarization points to remove: