 $contrl units=angs local=boys runtyp=makefp 
       mult=1 icharg=0 coord=cart icut=11 $end
 $system timlim=99999 mwords=200 $end
 $scf soscf=.f. dirscf=.t. diis=.t. CONV=1.0d-06 $end
 $basis gbasis=n31 ngauss=6 ndfunc=1 $end
 $DAMP IFTTYP(1)=2,0 IFTFIX(1)=1,1 thrsh=500.0 $end
 $MAKEFP POL=.t. DISP=.f. CHTR=.f. EXREP=.f. $end
 $data
 g_263_4014
 C1
 C    6.0      93.92263412       49.23364162       60.98057747
 O    8.0      93.72259140       49.32409763       59.79388237
 N    7.0      94.85218048       49.97347832       61.58077717
 H    1.0      94.94859695       49.93683338       62.58549690
 CA   6.0      95.66679001       51.04969978       60.95972538
 HA1  1.0      95.09557724       51.95291996       60.74521065
 HA2  1.0      96.01783752       50.71131229       59.98486042
 H000 1.0      93.32167407       48.53599647       61.54278487
 H000 1.0      96.54945530       51.36764076       61.49241141
 $end 
!comment atoms to be erased:
!polarization points to remove: