 $contrl units=angs local=boys runtyp=makefp 
       mult=1 icharg=0 coord=cart icut=11 $end
 $system timlim=99999 mwords=200 $end
 $scf soscf=.f. dirscf=.t. diis=.t. CONV=1.0d-06 $end
 $basis gbasis=n31 ngauss=6 ndfunc=1 $end
 $DAMP IFTTYP(1)=2,0 IFTFIX(1)=1,1 thrsh=500.0 $end
 $MAKEFP POL=.t. DISP=.f. CHTR=.f. EXREP=.f. $end
 $data
 g_294_4474
 C1
 C    6.0      70.40291309       55.20519733       67.47114658
 O    8.0      69.82251644       54.20831203       67.74125576
 N    7.0      71.26146793       55.68379879       68.30318928
 H    1.0      71.69991970       56.55703068       68.04761410
 CA   6.0      71.65060520       55.11571884       69.58246708
 HA1  1.0      72.53823757       55.70137024       69.82165813
 HA2  1.0      71.80058956       54.06303883       69.34275150
 H000 1.0      70.23608473       55.71672378       66.53602739
 H000 1.0      70.87616527       55.16173179       70.33217669
 $end 
!comment atoms to be erased:
!polarization points to remove: