 $contrl units=angs local=boys runtyp=makefp 
       mult=1 icharg=0 coord=cart icut=11 $end
 $system timlim=99999 mwords=200 $end
 $scf soscf=.f. dirscf=.t. diis=.t. CONV=1.0d-06 $end
 $basis gbasis=n31 ngauss=6 ndfunc=1 $end
 $DAMP IFTTYP(1)=2,0 IFTFIX(1)=1,1 thrsh=500.0 $end
 $MAKEFP POL=.t. DISP=.f. CHTR=.f. EXREP=.f. $end
 $data
 g_714_11995
 C1
 C    6.0      61.99587345       63.69705200       78.77097607
 O    8.0      62.30973721       63.75225067       77.59716511
 C    6.0      59.28046703       65.58303356       78.06882381
 O    8.0      58.97431850       66.34971619       77.19818592
 C    6.0      56.27299786       65.27537346       78.71292591
 O    8.0      56.32359028       65.41924000       79.93324757
 C    6.0      53.30769539       66.83590412       79.29972172
 O    8.0      52.23817825       67.37381935       79.14649487
 C    6.0      51.87057972       66.07551575       81.98736191
 O    8.0      52.60291576       66.89338207       82.54190445
 C    6.0      50.09695053       65.88200569       84.81029510
 O    8.0      49.89918232       64.71272945       84.96496201
 C    6.0      49.02566910       67.68355370       87.64129639
 O    8.0      49.09045696       68.79184246       87.09421158
 C    6.0      46.41191483       68.19880009       90.31833649
 O    8.0      46.18428230       67.15511322       90.93795776
 C    6.0      44.39923286       70.80923557       91.81848526
 O    8.0      44.39035892       71.53461933       90.83599091
 C    6.0      42.00901031       71.81341648       94.37955856
 O    8.0      41.79106712       70.72662830       94.92866516
 C    6.0      40.73100090       74.23699856       96.84003830
 O    8.0      40.48575401       75.10732174       96.01840973
 C    6.0      38.65311623       74.94353771      100.01979828
 O    8.0      38.96112919       73.93984318      100.54601669
 C    6.0      35.95535755       74.82017040      101.87437057
 C    6.0      56.54692650       51.94211960       84.71012115
 O    8.0      55.58988094       52.66988277       85.07888794
 C    6.0      55.15577316       49.94895458       81.90721512
 O    8.0      56.10407829       49.17467117       81.62431717
 C    6.0      52.39009857       48.67174149       79.71065044
 O    8.0      51.47253990       49.47000027       79.91277218
 C    6.0      51.15921497       46.43316269       77.24727154
 O    8.0      51.51247025       45.46442509       77.88156033
 C    6.0      49.02551651       45.14913082       74.49225903
 O    8.0      48.60394478       46.25606060       74.12860394
 C    6.0      47.48057842       42.78896332       71.98859692
 O    8.0      48.15154076       41.81361198       72.36624241
 C    6.0      45.58570862       41.77471638       69.00129795
 O    8.0      44.59983349       42.47214794       68.77043247
 C    6.0      45.40673733       40.36258698       65.92713833
 O    8.0      45.81479073       39.28910255       66.25638485
 C    6.0      43.70521545       39.76399899       62.77998447
 O    8.0      43.02348137       40.78561306       62.52744675
 C    6.0      43.55012417       37.85153866       59.77028847
 O    8.0      43.98033142       36.77411556       60.05972862
 C    6.0      42.56057739       37.49757767       56.42434597
 O    8.0      42.74187565       38.68857384       56.18137836
 C    6.0      42.28656292       36.13735199       53.00562859
 O    8.0      41.62471771       35.15148163       53.30475330
 C    6.0      42.67942429       35.61011314       49.77311134
 O    8.0      43.76833916       36.13493919       49.78168964
 C    6.0      43.92347813       34.81533527       47.01705456
 O    8.0      43.58960629       36.05531693       46.95803165
 C    6.0      45.13684750       35.61705589       44.19271946
 O    8.0      45.70855618       36.57563686       43.68710518
 C    6.0      42.60180473       37.41254330       43.44668388
 O    8.0      41.75329685       38.09171200       42.80477524
 C    6.0      43.82489204       39.50476170       46.41959190
 O    8.0      44.89488125       38.86360168       46.71466351
 C    6.0      43.77372742       41.88171864       49.08600807
 O    8.0      44.42914486       42.43542194       50.03799915
 C    6.0      42.13164330       41.13535404       51.68015957
 O    8.0      42.84809589       40.12589931       51.65636539
 C    6.0      40.92538834       41.65953159       55.24967194
 O    8.0      40.62766075       42.81567574       55.17288208
 C    6.0      40.69224358       41.59293175       58.49325180
 O    8.0      41.66362762       40.83051682       58.56261253
 C    6.0      40.69301128       43.48391533       61.51389122
 O    8.0      39.68664169       44.13804531       61.30900383
 C    6.0      41.49527550       43.53122711       65.06892681
 O    8.0      42.16698647       42.55283356       65.13797283
 C    6.0      42.16626644       45.48363686       68.16980839
 O    8.0      41.14068031       46.19367123       68.08705807
 C    6.0      44.29467678       46.12991333       71.16795063
 O    8.0      45.10054588       45.22518158       71.00348949
 C    6.0      45.58524609       48.46037388       73.75110149
 O    8.0      44.54796791       49.13351536       73.81480694
 C    6.0      47.86869526       49.61462498       76.45700932
 O    8.0      48.73695850       48.75523567       76.29301548
 C    6.0      49.01947021       52.05247402       78.99444103
 O    8.0      48.26079845       52.98791885       78.85422230
 C    6.0      50.02036095       53.65929127       81.74772263
 O    8.0      49.83495235       54.22891140       82.85133362
 C    6.0      50.39396286       56.40582561       79.92409229
 O    8.0      50.02431393       56.01316452       78.80732059
 C    6.0      49.70893383       59.21044827       78.69066715
 O    8.0      50.91556549       59.12268639       78.56867313
 C    6.0      50.57685852       61.88662529       77.40685940
 O    8.0      50.54880619       62.41483212       78.48820210
 C    6.0      51.50471210       64.86721516       76.39155865
 O    8.0      52.12568283       65.85168362       76.12858295
 C    6.0      48.92931938       66.66687489       77.60785580
 O    8.0      48.64748955       65.92990875       78.53345394
 C    6.0      47.70626068       68.76606464       79.75464344
 O    8.0      47.55369186       69.49944973       80.68832397
 C    6.0      44.67098713       66.66412830       79.61910725
 O    8.0      44.75753307       66.08225346       78.53714466
 C    6.0      42.00973511       65.03069401       81.28280640
 O    8.0      41.75109863       66.04197979       81.86286926
 C    6.0      40.85621834       63.23306084       78.86652470
 O    8.0      40.80805302       64.38011646       78.46093655
 C    6.0      39.86366272       60.85413933       76.07845783
 O    8.0      40.20379543       59.77952003       76.60810947
 C    6.0      37.81953812       60.09716988       72.99305439
 O    8.0      37.70594597       61.26356602       72.70836353
 C    6.0      36.85112953       58.03657532       70.00442028
 O    8.0      37.12588787       56.91637516       70.36575794
 C    6.0      35.69449425       57.85369873       66.49850368
 O    8.0      35.68076611       59.02529716       66.10130787
 C    6.0      35.42346001       55.98495483       63.33159924
 O    8.0      35.18925667       54.83874798       63.80727291
 C    6.0      34.94869709       56.03097439       59.68820572
 O    8.0      35.06404877       57.24036694       59.44553852
 C    6.0      35.07919312       54.38234806       56.37313366
 O    8.0      34.90308285       53.19921494       56.79330826
 C    6.0      34.25412178       54.40745354       52.78686047
 O    8.0      34.32706356       55.59328556       52.48667240
 C    6.0      33.73079777       52.63120651       49.58153248
 O    8.0      33.72171879       51.40202522       49.81492043
 C    6.0      32.47095585       52.82258987       46.08696938
 O    8.0      32.73635387       54.00966644       45.84358215
 C    6.0      31.41312599       53.45712185       43.39111328
 O    8.0      30.46803951       53.71697426       44.13449287
 C    6.0      30.84526539       55.09434223       40.24992943
 O    8.0      29.79511738       55.11590481       39.70544338
 C    6.0      33.49351406       53.91137600       37.67459393
 O    8.0      34.45856571       54.63741779       37.35776424
 C    6.0      35.24627686       52.26038933       35.68186283
 O    8.0      36.41513348       51.98010445       35.41254997
 C    6.0      35.15735626       54.69473839       33.31562519
 O    8.0      35.51061630       55.08681774       32.21400738
 C    6.0      36.53666973       57.13124275       35.36777973
 O    8.0      37.13116646       58.17289352       35.47097683
 C    6.0      37.24061012       56.87539101       38.46353531
 O    8.0      38.02970409       57.29498863       39.32064056
 C    6.0      35.18680096       56.61145210       40.90001106
 O    8.0      35.01029491       55.41429520       40.63054562
 C    6.0      34.22081947       57.37637997       44.44978237
 O    8.0      34.22310352       58.60011578       44.26279545
 C    6.0      33.27259541       57.22629547       47.90171146
 O    8.0      33.32293034       56.02688313       48.18913460
 C    6.0      33.70539188       58.77862453       51.09848976
 O    8.0      32.81915188       59.56554413       50.82495689
 C    6.0      34.31507111       59.00386810       54.67838764
 O    8.0      34.86329079       57.87642002       54.83633518
 C    6.0      34.35073853       60.68210125       58.04006577
 O    8.0      33.70462894       61.72134876       57.83496857
 C    6.0      34.72760201       60.53475857       61.66133881
 O    8.0      35.34836292       59.48858738       61.72636032
 C    6.0      34.84473228       62.37775326       64.78998661
 O    8.0      34.11059856       63.32077503       64.38475132
 C    6.0      34.88807678       62.18656063       68.45096111
 O    8.0      35.33768654       61.07575893       68.73754025
 C    6.0      35.88020802       64.02686596       71.52155399
 O    8.0      35.01354694       64.89151478       71.54119015
 C    6.0      38.01730633       65.06066322       74.47436810
 O    8.0      38.91309738       64.18161869       74.52720165
 C    6.0      38.79712582       67.46740818       77.14100361
 O    8.0      38.05239201       68.42187405       76.95962429
 C    6.0      37.06341267       67.14898109       79.58739758
 O    8.0      36.69112682       65.96586227       79.73870754
 C    6.0      34.31237221       68.56712818       77.78244495
 O    8.0      33.11247826       68.54603291       77.53450871
 C    6.0      34.95508194       68.64843845       74.78479862
 O    8.0      36.01428032       68.24484348       74.39267635
 C    6.0      34.02217865       68.16736698       71.78306103
 O    8.0      34.26322937       69.41044331       71.81983471
 C    6.0      34.31757927       66.86061859       68.28210354
 O    8.0      33.99308205       65.74390411       68.63749981
 C    6.0      34.07747269       66.89043522       64.50334072
 O    8.0      34.11725521       68.09984684       64.23267841
 C    6.0      33.87672901       65.29842377       61.24620914
 O    8.0      33.97470474       64.08131599       61.53386593
 C    6.0      32.97719002       65.36334515       57.84327507
 O    8.0      33.22856426       66.48966789       57.58436680
 C    6.0      32.69887447       63.59179497       54.53814983
 O    8.0      32.86139965       62.42620945       54.90128517
 C    6.0      32.19830513       63.51224899       50.82639694
 O    8.0      32.25286484       64.75228310       50.72003365
 C    6.0      33.15684319       62.13000298       47.46147156
 O    8.0      33.39050770       60.90700626       47.60944843
 C    6.0      34.56112385       62.37559795       44.51684952
 O    8.0      35.08888721       63.53059769       44.44806576
 C    6.0      36.99494362       60.56716442       42.61140347
 O    8.0      36.32617474       59.56631184       42.37649918
 C    6.0      39.84392166       60.51508904       40.11094570
 O    8.0      40.50432205       61.38597965       40.74732304
 C    6.0      41.26365185       60.68411350       36.79554939
 O    8.0      40.52012444       60.22744656       35.93041897
 C    6.0      42.44736195       62.45703220       34.32829380
 O    8.0      42.04908371       62.80390739       33.21004391
 C    6.0      45.09037971       60.06711006       33.67121220
 O    8.0      44.27340508       59.18458462       33.90031815
 C    6.0      47.15373039       58.46349239       35.58378220
 O    8.0      47.13796139       57.44860649       36.29166126
 C    6.0      47.40471840       61.07975006       38.30611229
 O    8.0      47.49678135       61.00630283       39.52980995
 C    6.0      44.91064548       63.09296131       39.00281906
 O    8.0      43.99078369       62.89301872       38.22331905
 C    6.0      42.70740509       64.21930313       41.43093586
 O    8.0      43.23902130       65.23096085       41.84186459
 C    6.0      39.21159744       64.77251530       42.33001232
 O    8.0      38.87042046       63.56709480       42.49900818
 C    6.0      36.78825855       66.68635368       44.23619747
 O    8.0      37.13322163       67.85605907       44.12315845
 C    6.0      33.68938446       66.82960033       46.15417480
 O    8.0      33.33699703       65.62144279       46.11674309
 C    6.0      32.33487129       67.94322491       49.56579208
 O    8.0      32.37971306       69.19793606       49.37656403
 C    6.0      31.47613525       67.71920681       53.09715748
 O    8.0      31.44380569       66.53266430       53.15842628
 C    6.0      31.25058651       69.17585850       56.56964302
 O    8.0      30.51311970       70.11553288       56.29256248
 C    6.0      32.55832195       69.71148968       60.09435654
 O    8.0      33.17823410       68.63865376       60.23191452
 C    6.0      32.99694538       71.39565945       63.17965984
 O    8.0      32.15223789       72.27048397       62.96974182
 C    6.0      33.66095543       71.12170696       66.98916912
 O    8.0      34.54590321       70.31889439       66.97135448
 C    6.0      33.26962948       72.63826847       70.25872707
 O    8.0      32.77019978       73.71460438       69.97996807
 C    6.0      30.77583313       72.79060841       72.03544140
 O    8.0      30.13458252       71.87900066       71.54521465
 C    6.0      28.96662712       74.99924183       70.35389423
 O    8.0      27.95150280       75.29978275       69.76694584
 C    6.0      30.67865372       74.89957333       67.27075100
 O    8.0      31.40244961       73.90851498       67.30989933
 C    6.0      30.22723675       75.19981861       63.53519440
 O    8.0      29.46350098       76.16295338       63.65715504
 C    6.0      30.38604736       73.96666050       60.03618717
 O    8.0      31.07235909       72.98915386       60.30325413
 C    6.0      30.85441589       73.66666317       56.69509888
 O    8.0      31.28940582       74.81091022       56.83479309
 C    6.0      31.66293144       72.42645741       53.31140518
 O    8.0      31.19367123       71.31644726       53.39192390
 C    6.0      33.38516235       72.72174358       50.20424843
 O    8.0      34.10390377       73.52834225       50.77910900
 C    6.0      35.45875072       71.24697208       47.45399475
 O    8.0      34.72864628       70.36477566       47.09471226
 C    6.0      38.60958099       70.77954769       45.86108208
 O    8.0      39.16512012       71.47306919       46.66325569
 C    6.0      40.98540783       68.79879475       43.89219284
 O    8.0      40.22912502       67.96370029       43.36957455
 C    6.0      44.40499783       68.14573765       43.26175213
 O    8.0      44.96209145       69.13523197       43.68943214
 C    6.0      47.07429886       65.61326027       42.65443802
 O    8.0      46.39526844       64.79026318       42.07085609
 C    6.0      50.76734543       64.82112408       42.47248650
 O    8.0      51.19837761       65.83725929       43.03237915
 C    6.0      53.65270615       63.88683319       41.31229401
 O    8.0      53.18416595       63.43798161       40.27990818
 C    6.0      57.13084698       64.34026241       40.89497566
 O    8.0      57.33197689       64.41333294       42.14736938
 C    6.0      60.48678875       63.94304276       39.97883797
 O    8.0      60.51721096       64.51679230       38.89963150
 C    6.0      63.36330891       63.63034725       39.31545734
 O    8.0      64.00471210       64.18061733       38.45544815
 C    6.0      63.49977970       60.10912895       38.32621574
 O    8.0      62.97075748       59.60285187       39.29632664
 C    6.0      64.09176350       57.73647785       35.59454441
 O    8.0      64.19334888       58.54879379       34.69933510
 C    6.0      66.28826618       54.71458912       34.88094807
 O    8.0      66.24729633       54.24750328       36.01130486
 C    6.0      68.04042339       51.97905540       34.20622349
 O    8.0      68.01499844       50.80391884       34.48404789
 C    6.0      70.08073330       51.76922321       36.51890755
 O    8.0      70.38077831       50.62884331       36.89390182
 C    6.0      67.76415348       51.02251530       38.65483761
 O    8.0      67.80303478       50.11942863       39.45013523
 C    6.0      66.03807926       48.84252548       37.30298042
 O    8.0      65.44222355       48.02671909       37.95549393
 C    6.0      68.55228901       46.66791916       37.53738880
 O    8.0      69.18863773       45.64676762       37.33199596
 C    6.0      69.32932377       47.28231430       41.15310192
 O    8.0      70.11090755       47.49167919       42.11116314
 C    6.0      66.35460377       46.26353264       43.26216698
 O    8.0      65.37947178       46.07950687       42.55908012
 N    7.0      66.56394482       45.61444759       44.43466663
 CD   6.0      67.85037518       45.54869652       45.09925365
 HD1  1.0      67.96418667       46.41113281       45.75602055
 HD2  1.0      68.70753765       45.46417236       44.43123341
 CG   6.0      67.79043674       44.29499626       46.03797436
 HG1  1.0      68.40093136       44.32493687       46.94047451
 HG2  1.0      67.92029858       43.36208820       45.48941612
 CB   6.0      66.26509190       44.25929546       46.39672756
 HB1  1.0      65.85036755       43.25480938       46.48103714
 HB2  1.0      66.01109028       44.88580704       47.25175858
 CA   6.0      65.57081699       44.78731632       45.21871090
 HA   1.0      65.33380032       43.92160416       44.60027218
 H000 1.0      62.14125889       63.25498125       77.79764394
 H000 1.0      64.65119517       45.28492272       45.48445980
 $end 
!comment atoms to be erased:
!polarization points to remove: