 $contrl units=angs local=boys runtyp=makefp 
       mult=1 icharg=0 coord=cart icut=11 $end
 $system timlim=99999 mwords=200 $end
 $scf soscf=.f. dirscf=.t. diis=.t. CONV=1.0d-06 $end
 $basis gbasis=n31 ngauss=6 ndfunc=1 $end
 $DAMP IFTTYP(1)=2,0 IFTFIX(1)=1,1 thrsh=500.0 $end
 $MAKEFP POL=.t. DISP=.f. CHTR=.f. EXREP=.f. $end
 $data
 g_921_16182
 C1
 C    6.0      61.49736881       63.21841240       59.91070747
 O    8.0      62.25041866       62.37755775       59.46680546
 C    6.0      60.46269894       63.43111038       56.74088955
 O    8.0      59.92969036       63.02349567       55.67047119
 C    6.0      61.25828266       65.63639641       54.70789909
 O    8.0      61.40973568       65.66614628       53.48258495
 C    6.0      59.57994938       68.66297245       54.45695877
 O    8.0      60.15845776       69.32514668       55.32389641
 C    6.0      58.37158203       71.29311085       52.41374493
 O    8.0      57.52856731       70.83190441       51.66964054
 C    6.0      57.94889450       74.92299557       51.97628498
 O    8.0      59.17222500       75.05461216       51.83740616
 C    6.0      56.23194695       78.00376415       50.81709862
 O    8.0      55.30293941       77.82996655       51.62263870
 C    6.0      53.75315666       79.05910015       49.33186531
 O    8.0      53.76607895       77.93376446       48.86069775
 C    6.0      51.12968922       80.35324097       47.69838810
 O    8.0      51.67379379       81.45011902       47.62897015
 C    6.0      48.21647644       80.97946167       45.86179733
 O    8.0      47.61885166       79.93703365       45.93420506
 C    6.0      45.50033569       83.17792892       44.79657650
 O    8.0      46.18145466       84.10131454       44.35075283
 C    6.0      42.62449741       84.59711075       44.05520916
 O    8.0      42.51768589       85.75208664       43.54653835
 C    6.0      40.14483929       84.65227127       46.83440685
 O    8.0      39.84714985       83.46740723       46.94979191
 C    6.0      37.12499142       86.33287430       48.16690922
 O    8.0      37.27202415       87.53343582       48.17853451
 C    6.0      33.51506710       85.86908340       48.42989922
 O    8.0      33.27043533       84.68952179       48.64491940
 C    6.0      30.36033630       86.44289017       48.20559025
 O    8.0      30.31461716       87.35433578       47.41936207
 C    6.0      27.25761414       84.66613770       47.54457474
 O    8.0      27.37718582       83.89204025       48.51104259
 C    6.0      24.16512012       83.39551926       46.35814667
 O    8.0      24.32419777       83.54707718       45.16119003
 C    6.0      20.89310169       81.58613205       46.65729046
 O    8.0      20.51805973       82.43469238       47.49641418
 C    6.0      18.47377062       79.89768505       48.00578117
 O    8.0      17.50295401       80.23122787       48.67283821
 C    6.0      20.01997948       80.06469727       50.86816311
 O    8.0      19.30631161       80.57840347       51.75686359
 C    6.0      23.13513756       82.30266571       50.70294857
 O    8.0      23.68781090       81.78705215       49.73852158
 C    6.0      26.16465569       82.67313004       51.75143242
 O    8.0      25.81329823       81.82826996       52.62071609
 C    6.0      29.80665684       82.26467133       50.94268799
 O    8.0      30.11515617       82.82089233       49.87147331
 C    6.0      32.85914898       81.56324387       50.77584267
 O    8.0      32.86886692       80.37748337       51.18845940
 C    6.0      35.78352928       81.68720245       48.64317894
 O    8.0      35.97723484       82.87385941       48.51623535
 C    6.0      39.03163910       80.02613068       47.70136356
 O    8.0      38.82651806       78.88617039       47.90862083
 C    6.0      42.29427814       79.64081287       45.92503071
 O    8.0      42.72439480       80.77169418       45.88648796
 C    6.0      45.29632568       77.28162289       45.91170788
 O    8.0      44.67529774       76.26255512       45.53954601
 C    6.0      48.84359360       76.37529850       46.39333248
 O    8.0      49.22524929       77.32884884       47.11588860
 C    6.0      51.24218941       73.55202198       46.70302391
 O    8.0      50.61145306       72.77543545       46.02916718
 C    6.0      53.92379284       71.55872822       48.18379879
 O    8.0      54.29899216       72.37958431       49.02384758
 C    6.0      56.25095367       68.95102024       48.82487774
 O    8.0      56.15808487       68.31053257       47.76875496
 C    6.0      58.86857033       67.05407619       50.13082027
 O    8.0      58.63565445       67.06259251       51.37848854
 C    6.0      61.37568951       64.53029633       49.81769085
 O    8.0      61.76105022       64.37166214       48.69928360
 C    6.0      63.64593983       62.26458549       50.27752399
 O    8.0      64.72776890       61.77967548       49.91501331
 C    6.0      61.77031040       59.24192905       51.35307312
 O    8.0      61.45148754       58.06389332       51.13015652
 N    7.0      61.34297848       59.85979080       52.46348381
 H    1.0      61.53303623       60.83813667       52.62722969
 CA   6.0      60.67781925       59.22386646       53.56246948
 HA   1.0      60.92777729       58.16343784       53.59594345
 CB   6.0      61.06373310       59.90532875       54.83168602
 HB1  1.0      60.34809589       59.67570782       55.62114716
 HB2  1.0      60.96579075       60.98484993       54.71703529
 CG   6.0      62.49242306       59.65386868       55.29523849
 HG1  1.0      62.71219730       60.36575794       56.09085560
 HG2  1.0      63.26260090       59.76366997       54.53178406
 SD   16.0      62.65912533       57.95198441       55.95821857
 CE   6.0      61.73791409       58.03374290       57.50513077
 HE1  1.0      62.03829288       57.18820572       58.12395573
 HE2  1.0      60.67249775       58.14243793       57.30222702
 HE3  1.0      62.14121342       58.84284973       58.11405659
 H000 1.0      61.60968278       62.87854397       58.89295803
 H000 1.0      59.60570690       59.26527531       53.44933541
 $end 
!comment atoms to be erased:
!polarization points to remove: