 $contrl units=angs local=boys runtyp=makefp 
       mult=1 icharg=0 coord=cart icut=11 $end
 $system timlim=99999 mwords=200 $end
 $scf soscf=.f. dirscf=.t. diis=.t. CONV=1.0d-06 $end
 $basis gbasis=n31 ngauss=6 ndfunc=1 $end
 $DAMP IFTTYP(1)=2,0 IFTFIX(1)=1,1 thrsh=500.0 $end
 $MAKEFP POL=.t. DISP=.f. CHTR=.f. EXREP=.f. $end
 $data
 hd_1022_17692
 C1
 C    6.0      58.46176147       58.82699013       63.56209755
 O    8.0      59.02317524       59.31531429       64.58617687
 C    6.0      55.80436230       59.63500977       65.34494877
 O    8.0      55.92318535       60.29108047       66.31671429
 N    7.0      55.50035954       58.32984447       65.47363758
 H    1.0      55.38936138       57.82120705       64.60814953
 CA   6.0      55.49578667       57.60484695       66.73203945
 HA   1.0      54.79279041       58.15320015       67.35908985
 CB   6.0      54.89208221       56.23563290       66.58784389
 HB1  1.0      55.64200878       55.71024418       65.99650860
 HB2  1.0      53.97801399       56.40423298       66.01850033
 CG   6.0      54.65399265       55.60091019       67.91758060
 ND1  7.0      55.48995495       54.70356464       68.54325771
 HD1  1.0      56.41481876       54.51376438       68.18451405
 CE1  6.0      55.05122185       54.54299450       69.77774143
 HE1  1.0      55.64370155       53.97164822       70.47697544
 NE2  7.0      53.87310505       55.14822483       69.98193264
 CD2  6.0      53.61901760       55.81036091       68.77272129
 HD2  1.0      52.78728962       56.47290707       68.58385563
 H000 1.0      57.57428590       59.41069647       63.75081142
 H000 1.0      56.41991691       57.55280795       67.28630846
 $end 
!comment atoms to be erased:
!polarization points to remove: