 $contrl units=angs local=boys runtyp=makefp 
       mult=1 icharg=0 coord=cart icut=11 $end
 $system timlim=99999 mwords=200 $end
 $scf soscf=.f. dirscf=.t. diis=.t. CONV=1.0d-06 $end
 $basis gbasis=n31 ngauss=6 ndfunc=1 $end
 $DAMP IFTTYP(1)=2,0 IFTFIX(1)=1,1 thrsh=500.0 $end
 $MAKEFP POL=.t. DISP=.f. CHTR=.f. EXREP=.f. $end
 $data
 hd_1075_18575
 C1
 C    6.0      60.10962963       47.80579090       70.84153652
 O    8.0      59.91744518       49.00657654       70.94784260
 N    7.0      60.88995457       47.29454517       69.88721371
 H    1.0      61.14831448       46.32703304       70.01863003
 CA   6.0      61.62567616       48.02637577       68.88835430
 HA   1.0      62.31684208       48.66557121       69.43772793
 CB   6.0      62.44099140       47.13720798       68.00255299
 HB1  1.0      61.79668903       46.80547237       67.18835354
 HB2  1.0      62.70683765       46.19317532       68.47817898
 CG   6.0      63.72141361       47.73857117       67.54702091
 ND1  7.0      64.27325726       47.64219284       66.27969265
 HD1  1.0      63.82359982       47.28162289       65.45029163
 CE1  6.0      65.55109501       47.98266888       66.36744022
 HE1  1.0      66.24633312       47.94546127       65.54182529
 NE2  7.0      65.88881969       48.42531681       67.60189533
 CD2  6.0      64.71482754       48.18468094       68.40268612
 HD2  1.0      64.63173389       48.05772305       69.47197437
 H000 1.0      59.55310671       47.14043943       71.48304144
 H000 1.0      61.04380021       48.71578965       68.29668905
 $end 
!comment atoms to be erased:
!polarization points to remove: