 $contrl units=angs local=boys runtyp=makefp 
       mult=1 icharg=0 coord=cart icut=11 $end
 $system timlim=99999 mwords=200 $end
 $scf soscf=.f. dirscf=.t. diis=.t. CONV=1.0d-06 $end
 $basis gbasis=n31 ngauss=6 ndfunc=1 $end
 $DAMP IFTTYP(1)=2,0 IFTFIX(1)=1,1 thrsh=500.0 $end
 $MAKEFP POL=.t. DISP=.f. CHTR=.f. EXREP=.f. $end
 $data
 hd_290_4417
 C1
 C    6.0      74.77875233       60.31275272       64.73697186
 O    8.0      73.73520374       59.84195232       64.28843975
 N    7.0      75.60393810       59.59977150       65.51030636
 H    1.0      76.44154072       60.08422375       65.79982281
 CA   6.0      75.14162540       58.27141285       65.94927311
 HA   1.0      74.66980457       57.75234222       65.11497974
 CB   6.0      76.42829418       57.47635365       66.31662846
 HB1  1.0      76.90435886       57.91911602       67.19151974
 HB2  1.0      77.02376842       57.34309196       65.41343212
 CG   6.0      76.16473675       56.02392197       66.75217152
 ND1  7.0      75.64018726       55.49627781       67.90104389
 HD1  1.0      75.26696682       56.08877659       68.62887859
 CE1  6.0      75.73244572       54.17556286       67.87623882
 HE1  1.0      75.25365353       53.56580257       68.62813473
 NE2  7.0      76.30198002       53.75784874       66.71539783
 CD2  6.0      76.59914494       54.95519638       66.06870174
 HD2  1.0      77.29931355       54.98696804       65.24702549
 H000 1.0      74.94270842       61.35706426       64.52140121
 H000 1.0      74.42844016       58.29696791       66.75837919
 $end 
!comment atoms to be erased: CA CB HB1 HB2 CG ND1 HD1 CE1 HE1 NE2 CD2 HD2
!polarization points to remove: N HA