 $contrl units=angs local=boys runtyp=makefp 
       mult=1 icharg=0 coord=cart icut=11 $end
 $system timlim=99999 mwords=200 $end
 $scf soscf=.f. dirscf=.t. diis=.t. CONV=1.0d-06 $end
 $basis gbasis=n31 ngauss=6 ndfunc=1 $end
 $DAMP IFTTYP(1)=2,0 IFTFIX(1)=1,1 thrsh=500.0 $end
 $MAKEFP POL=.t. DISP=.f. CHTR=.f. EXREP=.f. $end
 $data
 hd_282_4282
 C1
 C    6.0      89.40809250       64.74050045       70.94431400
 O    8.0      89.63159561       64.53655243       69.74893093
 N    7.0      88.19934845       64.37449455       71.37727261
 H    1.0      87.90510178       64.66084480       72.30005741
 CA   6.0      87.28950500       63.64990234       70.61480999
 HA   1.0      87.83462524       62.93892384       69.99394894
 CB   6.0      86.33832932       62.64814377       71.42055988
 HB1  1.0      85.60396194       63.26266289       71.94129467
 HB2  1.0      87.01335907       62.24505424       72.17551708
 CG   6.0      85.68386078       61.47594452       70.62133312
 ND1  7.0      84.61362839       61.55414104       69.76201534
 HD1  1.0      84.11846161       62.39335060       69.49623585
 CE1  6.0      84.43281174       60.26192665       69.33502674
 HE1  1.0      83.72558594       59.91233349       68.59744549
 NE2  7.0      85.27223587       59.45053577       69.96720791
 CD2  6.0      86.04598999       60.18453121       70.78235149
 HD2  1.0      86.77213669       59.84855175       71.50777340
 H000 1.0      90.08400975       65.24093738       71.62006370
 H000 1.0      86.71977259       64.26661635       69.93730891
 $end 
!comment atoms to be erased:
!polarization points to remove: