 $contrl units=angs local=boys runtyp=makefp 
       mult=1 icharg=0 coord=cart icut=11 $end
 $system timlim=99999 mwords=200 $end
 $scf soscf=.f. dirscf=.t. diis=.t. CONV=1.0d-06 $end
 $basis gbasis=n31 ngauss=6 ndfunc=1 $end
 $DAMP IFTTYP(1)=2,0 IFTFIX(1)=1,1 thrsh=500.0 $end
 $MAKEFP POL=.t. DISP=.f. CHTR=.f. EXREP=.f. $end
 $data
 hd_343_5283
 C1
 C    6.0      76.48482800       54.49043751       76.72554493
 O    8.0      75.78444958       54.50282097       75.74971676
 N    7.0      76.61102772       55.60470581       77.47138500
 H    1.0      77.07325459       55.51970959       78.36536884
 CA   6.0      76.00220203       56.85214996       77.09880352
 HA   1.0      74.92654324       56.67594433       77.09496021
 CB   6.0      76.24484539       57.89241314       78.17377567
 HB1  1.0      75.83267689       58.85256767       77.86342144
 HB2  1.0      77.31672764       58.05447578       78.28737736
 CG   6.0      75.64270496       57.49418736       79.50301647
 ND1  7.0      76.12714291       56.83311939       80.58797836
 HD1  1.0      77.02984333       56.38016701       80.57964325
 CE1  6.0      75.19929409       56.85901165       81.55822754
 HE1  1.0      75.40258884       56.33696079       82.48155594
 NE2  7.0      74.08143520       57.44579315       81.15026474
 CD2  6.0      74.46720600       58.00258636       79.89922047
 HD2  1.0      73.77186298       58.59820843       79.32639599
 H000 1.0      76.94734681       53.58910794       77.09651697
 H000 1.0      76.33128511       57.28734100       76.16807693
 $end 
!comment atoms to be erased:
!polarization points to remove: