 $contrl units=angs local=boys runtyp=makefp 
       mult=1 icharg=0 coord=cart icut=11 $end
 $system timlim=99999 mwords=200 $end
 $scf soscf=.f. dirscf=.t. diis=.t. CONV=1.0d-06 $end
 $basis gbasis=n31 ngauss=6 ndfunc=1 $end
 $DAMP IFTTYP(1)=2,0 IFTFIX(1)=1,1 thrsh=500.0 $end
 $MAKEFP POL=.t. DISP=.f. CHTR=.f. EXREP=.f. $end
 $data
 he_289_4400
 C1
 C    6.0      75.23382664       62.94655800       66.61842823
 O    8.0      74.06987667       62.99590111       66.76311970
 N    7.0      75.80083370       62.37110138       65.50732136
 H    1.0      76.80786610       62.35747814       65.43110371
 CA   6.0      75.01022816       61.78712845       64.43262577
 HA   1.0      73.99488926       62.18345642       64.44347858
 CB   6.0      75.54960728       62.05439091       63.03817272
 HB1  1.0      74.83789921       61.53989315       62.39253044
 HB2  1.0      76.58099651       61.73875332       62.88099766
 CG   6.0      75.51961422       63.48810673       62.56869316
 ND1  7.0      76.27327442       63.99802685       61.51724339
 CE1  6.0      75.81279278       65.26706696       61.26946926
 HE1  1.0      76.24395847       65.84609032       60.46620369
 NE2  7.0      74.82199192       65.55238247       62.14595795
 HE2  1.0      74.30307865       66.41728401       62.09337234
 CD2  6.0      74.56718922       64.38980103       62.88044453
 HD2  1.0      73.84563923       64.30262566       63.67929935
 H000 1.0      75.83075546       63.21603927       67.47574656
 H000 1.0      74.84627207       60.74281691       64.64819642
 $end 
!comment atoms to be erased:
!polarization points to remove: