 $contrl units=angs local=boys runtyp=makefp 
       mult=1 icharg=1 coord=cart icut=11 $end
 $system timlim=99999 mwords=200 $end
 $scf soscf=.f. dirscf=.t. diis=.t. CONV=1.0d-06 $end
 $basis gbasis=n31 ngauss=6 ndfunc=1 $end
 $DAMP IFTTYP(1)=2,0 IFTFIX(1)=1,1 thrsh=500.0 $end
 $MAKEFP POL=.t. DISP=.f. CHTR=.f. EXREP=.f. $end
 $data
 hp_5_55
 C1
 C    6.0      78.94640446       44.40979004       73.82647991
 O    8.0      79.48830128       44.95692253       74.79869366
 N    7.0      79.73763943       43.63495827       73.05222988
 H    1.0      79.45998669       43.35407734       72.12264538
 CA   6.0      81.12083435       43.46342087       73.27012539
 HA   1.0      81.30065918       43.66118908       74.32684422
 CB   6.0      81.52767181       42.05513477       72.88415432
 HB1  1.0      82.58296967       41.95225239       73.13683987
 HB2  1.0      81.43955231       42.04396725       71.79777622
 CG   6.0      80.78922272       40.90554714       73.46248150
 ND1  7.0      80.76055527       40.61590195       74.83270168
 HD1  1.0      81.06266022       41.25125885       75.55737972
 CE1  6.0      80.39928436       39.28871155       74.96752262
 HE1  1.0      80.32344818       38.71979237       75.88239193
 NE2  7.0      80.03448486       38.85226250       73.73606205
 HE2  1.0      79.93360043       37.87033558       73.52217197
 CD2  6.0      80.24559021       39.82830048       72.81404018
 HD2  1.0      80.29462814       39.66756344       71.74719334
 H000 1.0      77.91900948       44.59525500       73.55444828
 H000 1.0      81.75881401       44.09623936       72.67308133
 $end 
!comment atoms to be erased:
!polarization points to remove: