 $contrl units=angs local=boys runtyp=makefp 
       mult=1 icharg=0 coord=cart icut=11 $end
 $system timlim=99999 mwords=200 $end
 $scf soscf=.f. dirscf=.t. diis=.t. CONV=1.0d-06 $end
 $basis gbasis=n31 ngauss=6 ndfunc=1 $end
 $DAMP IFTTYP(1)=2,0 IFTFIX(1)=1,1 thrsh=500.0 $end
 $MAKEFP POL=.t. DISP=.f. CHTR=.f. EXREP=.f. $end
 $data
 i_10_132
 C1
 C    6.0      95.21587372       49.61910248       70.45415401
 O    8.0      95.05018234       49.80598450       69.24629688
 N    7.0      95.92864990       50.46936512       71.24357700
 H    1.0      95.85149765       50.33716202       72.24190235
 CA   6.0      96.92472458       51.48090839       70.65319538
 HA   1.0      96.71689987       51.48517609       69.58320141
 CB   6.0      96.60213470       52.87036896       71.26859188
 HB   1.0      96.72719955       52.69953728       72.33783245
 CG2  6.0      97.53807068       54.03020382       70.84230900
 HG21 1.0      98.59506607       53.78860474       70.95413685
 HG22 1.0      97.29074478       54.91007328       71.43623829
 HG23 1.0      97.41495132       54.34218407       69.80518818
 CG1  6.0      95.14478683       53.32578182       71.05244160
 HG11 1.0      94.51667786       52.66869545       71.65395260
 HG12 1.0      94.88397598       53.09133053       70.02040386
 CD   6.0      94.75204468       54.75281239       71.37488842
 HD1  1.0      95.21816254       55.45863628       70.68740368
 HD2  1.0      95.12208939       54.92234707       72.38604069
 HD3  1.0      93.66773605       54.86070156       71.40193462
 H000 1.0      94.71557761       48.81297588       70.96777118
 H000 1.0      97.94762694       51.27042530       70.92394719
 $end 
!comment atoms to be erased:
!polarization points to remove: