 $contrl units=angs local=boys runtyp=makefp 
       mult=1 icharg=0 coord=cart icut=11 $end
 $system timlim=99999 mwords=200 $end
 $scf soscf=.f. dirscf=.t. diis=.t. CONV=1.0d-06 $end
 $basis gbasis=n31 ngauss=6 ndfunc=1 $end
 $DAMP IFTTYP(1)=2,0 IFTFIX(1)=1,1 thrsh=500.0 $end
 $MAKEFP POL=.t. DISP=.f. CHTR=.f. EXREP=.f. $end
 $data
 i_257_3914
 C1
 C    6.0      73.56647015       42.40795135       63.77171040
 O    8.0      73.41641903       42.42207527       62.51808643
 N    7.0      74.66145992       43.02126408       64.24769878
 H    1.0      74.76341724       42.81578541       65.23130894
 CA   6.0      75.76891422       43.80951881       63.62685680
 HA   1.0      75.87908268       43.46524239       62.59853840
 CB   6.0      75.48874378       45.36919594       63.45879555
 HB   1.0      74.64608669       45.50774097       62.78142929
 CG2  6.0      75.14162540       46.00740910       64.84216213
 HG21 1.0      76.02870464       45.96345425       65.47403812
 HG22 1.0      74.24467564       45.44839382       65.10878086
 HG23 1.0      74.89640713       47.06799030       64.78614330
 CG1  6.0      76.67202473       46.12734318       62.93201447
 HG11 1.0      77.16023922       45.67526817       62.06866264
 HG12 1.0      77.42049694       46.13383770       63.72437954
 CD   6.0      76.38080120       47.63703346       62.60454655
 HD1  1.0      76.44099712       48.23375225       63.51471424
 HD2  1.0      75.39224148       47.75820732       62.16165543
 HD3  1.0      77.14190006       47.86756992       61.85910702
 H000 1.0      72.93190934       41.98334472       64.53393129
 H000 1.0      76.69044661       43.61233748       64.15205816
 $end 
!comment atoms to be erased:
!polarization points to remove: