 $contrl units=angs local=boys runtyp=makefp 
       mult=1 icharg=0 coord=cart icut=11 $end
 $system timlim=99999 mwords=200 $end
 $scf soscf=.f. dirscf=.t. diis=.t. CONV=1.0d-06 $end
 $basis gbasis=n31 ngauss=6 ndfunc=1 $end
 $DAMP IFTTYP(1)=2,0 IFTFIX(1)=1,1 thrsh=500.0 $end
 $MAKEFP POL=.t. DISP=.f. CHTR=.f. EXREP=.f. $end
 $data
 i_285_4332
 C1
 C    6.0      80.73019028       65.37635326       67.12186337
 O    8.0      79.78608608       64.85661030       67.73705959
 N    7.0      80.87417603       65.36750317       65.81608295
 H    1.0      81.74324036       65.77132702       65.49712658
 CA   6.0      79.87164974       65.03566742       64.83074665
 HA   1.0      78.92634869       65.49564362       65.11870861
 CB   6.0      80.29102325       65.45316696       63.37382317
 HB   1.0      81.35564804       65.32591343       63.17769051
 CG2  6.0      79.47661877       64.77011681       62.25006104
 HG21 1.0      78.41829777       65.03084660       62.25821495
 HG22 1.0      79.55373287       63.68285656       62.24483013
 HG23 1.0      79.79019642       65.22687435       61.31136894
 CG1  6.0      80.10068893       67.03146935       63.32603931
 HG11 1.0      80.56159973       67.32059956       62.38154411
 HG12 1.0      80.64144135       67.45788097       64.17093754
 CD   6.0      78.67988110       67.68903732       63.37456226
 HD1  1.0      77.90673733       67.22432613       62.76269913
 HD2  1.0      78.90967846       68.69452000       63.02199364
 HD3  1.0      78.27764034       67.79922009       64.38161373
 H000 1.0      81.46966112       65.89309728       67.71355366
 H000 1.0      79.65800469       63.97986292       64.89050911
 $end 
!comment atoms to be erased:
!polarization points to remove: