 $contrl units=angs local=boys runtyp=makefp 
       mult=1 icharg=0 coord=cart icut=11 $end
 $system timlim=99999 mwords=200 $end
 $scf soscf=.f. dirscf=.t. diis=.t. CONV=1.0d-06 $end
 $basis gbasis=n31 ngauss=6 ndfunc=1 $end
 $DAMP IFTTYP(1)=2,0 IFTFIX(1)=1,1 thrsh=500.0 $end
 $MAKEFP POL=.t. DISP=.f. CHTR=.f. EXREP=.f. $end
 $data
 i_354_5423
 C1
 C    6.0      89.26597595       61.53077602       78.04593563
 O    8.0      89.39655304       62.49270439       77.31843472
 C    6.0      92.57301331       60.87375164       79.51187611
 O    8.0      92.33850479       59.82985973       80.22363663
 C    6.0      96.26428604       61.31772995       79.00795460
 O    8.0      96.34489059       61.87813759       77.94925213
 C    6.0      99.42684174       61.60201073       80.57313919
 O    8.0      99.16074753       60.85229397       81.50609970
 C    6.0     103.14268112       61.49538517       80.09365082
 O    8.0     103.32054138       62.44374275       79.30901051
 C    6.0     106.48616791       60.66856861       81.30435944
 O    8.0     106.02674484       59.58156109       81.52397156
 C    6.0     109.10776138       60.09033680       83.45642090
 C    6.0      71.75059795       54.08189297       87.05385208
 O    8.0      71.68192387       53.84981632       88.29513550
 N    7.0      71.86711788       55.34598351       86.59135818
 H    1.0      72.09069729       55.37198544       85.60674667
 CA   6.0      71.68529034       56.59301281       87.29639053
 HA   1.0      72.60723591       56.85621262       87.81488419
 CB   6.0      71.49174213       57.73766518       86.31803513
 HB   1.0      70.68899632       57.45602608       85.63657761
 CG2  6.0      71.01221561       59.11035538       86.89773560
 HG21 1.0      69.92266178       59.08638954       86.91736221
 HG22 1.0      71.35411739       59.94202137       86.28166199
 HG23 1.0      71.54580593       59.33402061       87.82150269
 OG1  8.0      72.71663189       57.87426472       85.62345505
 HG1  1.0      73.25537205       58.42904091       86.19230270
 H000 1.0      88.36830564       61.09275427       78.45369029
 H000 1.0      70.90566331       56.61417930       88.04182502
 $end 
!comment atoms to be erased:
!polarization points to remove: