 $contrl units=angs local=boys runtyp=makefp 
       mult=1 icharg=0 coord=cart icut=11 $end
 $system timlim=99999 mwords=200 $end
 $scf soscf=.f. dirscf=.t. diis=.t. CONV=1.0d-06 $end
 $basis gbasis=n31 ngauss=6 ndfunc=1 $end
 $DAMP IFTTYP(1)=2,0 IFTFIX(1)=1,1 thrsh=500.0 $end
 $MAKEFP POL=.t. DISP=.f. CHTR=.f. EXREP=.f. $end
 $data
 i_66_974
 C1
 C    6.0      78.43863964       45.89666367       49.13406849
 O    8.0      78.30576420       45.80902100       47.88086414
 N    7.0      77.57130146       45.30175209       49.96459961
 H    1.0      77.77338505       45.40398121       50.94888210
 CA   6.0      76.45265102       44.40631866       49.57643509
 HA   1.0      76.08083248       44.59294796       48.56894970
 CB   6.0      76.93564892       42.94598579       49.50952053
 HB   1.0      77.17446804       42.59329796       50.51285267
 CG2  6.0      75.82548618       42.02384949       48.90221119
 HG21 1.0      75.91122150       41.10039234       49.47490215
 HG22 1.0      76.01066113       41.70488358       47.87650108
 HG23 1.0      74.81356144       42.33118534       49.16614056
 CG1  6.0      78.24841022       42.55169868       48.80881786
 HG11 1.0      79.09934521       43.10325146       49.20856476
 HG12 1.0      78.29947948       42.85399437       47.76282310
 CD   6.0      78.71303082       41.14977360       48.69517803
 HD1  1.0      78.72238636       40.51310539       49.57985878
 HD2  1.0      79.69070911       41.15341187       48.21326733
 HD3  1.0      78.08235645       40.61994553       47.98129559
 H000 1.0      79.29172102       46.40594259       49.55457538
 H000 1.0      75.64433651       44.45933600       50.28900489
 $end 
!comment atoms to be erased:
!polarization points to remove: