 $contrl units=angs local=boys runtyp=makefp 
       mult=1 icharg=0 coord=cart icut=11 $end
 $system timlim=99999 mwords=200 $end
 $scf soscf=.f. dirscf=.t. diis=.t. CONV=1.0d-06 $end
 $basis gbasis=n31 ngauss=6 ndfunc=1 $end
 $DAMP IFTTYP(1)=2,0 IFTFIX(1)=1,1 thrsh=500.0 $end
 $MAKEFP POL=.t. DISP=.f. CHTR=.f. EXREP=.f. $end
 $data
 i_76_1123
 C1
 C    6.0      85.27971268       53.14251423       44.93131161
 O    8.0      85.74037552       52.54762173       45.93432903
 C    6.0      87.64057159       55.51464081       44.08752918
 O    8.0      86.79376602       56.14355564       43.47030640
 C    6.0      90.43859482       57.73964405       44.83824253
 O    8.0      90.92390060       57.10680962       45.77532291
 C    6.0      92.64196396       60.64188957       44.16930199
 O    8.0      91.88350677       61.07225895       43.29725266
 C    6.0      95.02206802       63.40966702       45.16266823
 O    8.0      95.78420639       62.84614563       45.94016075
 C    6.0      95.74794769       66.86118126       45.61302185
 O    8.0      94.67674255       67.38682270       45.29482365
 C    6.0      97.00559616       69.68778133       47.17759609
 O    8.0      98.22717667       69.55656528       46.91797733
 C    6.0      96.57735825       73.38370800       48.04240227
 O    8.0      95.40163040       73.31008434       48.31151962
 C    6.0      97.48470306       76.87610149       48.20989132
 O    8.0      98.65966797       76.88818455       47.83095837
 C    6.0      97.94900894       80.18341064       47.77991295
 O    8.0      98.83172989       80.82920074       47.16351032
 C    6.0      98.64364624       80.64159393       51.44438267
 O    8.0      99.78803635       80.45341492       51.93066120
 C    6.0      95.97202301       79.35754299       53.76844883
 O    8.0      95.81014633       78.39746952       54.49529648
 C    6.0      92.81738281       78.96042347       52.47963428
 O    8.0      92.13394165       77.94388294       52.74256229
 C    6.0      92.87311554       77.42025852       49.69685555
 O    8.0      94.00531769       77.33291149       49.21828270
 C    6.0      91.92876816       74.56857204       48.32611084
 O    8.0      90.78220367       74.98692036       48.02318573
 C    6.0      92.77120590       71.88825130       45.95606327
 O    8.0      93.56744766       71.37808323       46.72988415
 C    6.0      92.03445435       69.60080624       43.23238373
 O    8.0      91.51489258       70.42898655       42.57552624
 C    6.0      92.48985291       66.28163338       41.58581734
 O    8.0      93.47177505       65.77954292       42.12702751
 C    6.0      90.36808014       63.19926739       40.72217464
 O    8.0      89.73096848       63.73890400       39.77090359
 C    6.0      89.16198730       59.50140953       40.71554661
 O    8.0      89.87997055       59.02880669       41.60833359
 C    6.0      86.48136139       56.86839581       39.72844601
 O    8.0      86.24752045       57.30167389       38.57950211
 C    6.0      83.85147095       54.53782082       40.47907352
 O    8.0      84.11983490       54.25021172       41.64422989
 C    6.0      80.92596054       52.57987976       39.98212337
 O    8.0      80.83171844       52.58565903       38.73852730
 C    6.0      78.64613056       49.77922440       41.02514267
 O    8.0      78.82848263       49.66531754       42.24706173
 C    6.0      75.57715893       47.96374798       40.29758453
 O    8.0      75.34001827       48.14710140       39.05624866
 C    6.0      75.72314739       45.30804634       38.99125576
 O    8.0      76.90533161       44.86677647       39.10008907
 C    6.0      76.42037868       46.48990631       35.86181164
 O    8.0      77.33147144       46.35449409       35.04356861
 C    6.0      77.82519817       49.66616631       36.43988609
 O    8.0      77.97243595       49.50897217       37.61694431
 C    6.0      79.92131710       52.55216599       35.36429405
 O    8.0      79.68540668       52.54399776       34.17467117
 C    6.0      82.23333359       55.40338516       36.03940964
 O    8.0      82.48483658       55.11905193       37.24003315
 C    6.0      83.95847321       58.31884861       36.15515709
 O    8.0      82.91988373       58.84753227       35.82950115
 C    6.0      86.22617722       61.07234955       37.05363750
 O    8.0      87.18177795       60.45647144       37.56500721
 C    6.0      86.97042465       64.64332104       37.75343418
 O    8.0      85.83038330       65.00264168       37.45127201
 C    6.0      88.63805771       67.75085926       39.15532589
 O    8.0      89.77466583       67.27926254       39.34936523
 C    6.0      88.13705444       70.90338230       40.96841335
 O    8.0      86.95604324       71.09793186       40.59660912
 C    6.0      88.60040665       72.92210102       44.17027950
 O    8.0      89.77411270       72.53021717       44.33186054
 C    6.0      87.47129440       74.96907711       46.99830055
 O    8.0      86.24050140       74.98385906       46.91158295
 C    6.0      88.07809830       76.62439823       50.23183346
 O    8.0      89.29241180       76.58460140       50.27916908
 C    6.0      87.09339142       78.83840084       53.08213234
 O    8.0      85.95476151       79.05684948       52.79779434
 C    6.0      86.79685593       79.96280193       56.26676083
 O    8.0      87.88034439       80.35669327       56.71943665
 C    6.0      84.88397598       81.62799835       58.66784096
 O    8.0      83.73279572       81.13492966       58.70898247
 C    6.0      84.02025223       83.25841904       61.24539375
 O    8.0      84.42943573       84.42899704       60.95561028
 C    6.0      82.45429993       85.42873383       62.77944565
 O    8.0      82.12427139       86.59765244       62.56204605
 C    6.0      85.17137527       85.37456512       65.28110027
 O    8.0      85.57983398       84.24314499       65.03387928
 C    6.0      87.47291565       86.66017532       67.94480801
 O    8.0      87.18811035       87.88276672       67.95418262
 C    6.0      89.85277176       86.38475418       70.83389759
 O    8.0      89.78460312       85.29718399       71.42365932
 C    6.0      91.74068451       87.23501205       73.09369564
 O    8.0      92.24283218       86.58189774       73.94870281
 C    6.0      89.78487015       87.07597733       75.50852299
 O    8.0      90.09708405       86.70515060       76.65603161
 C    6.0      89.36243057       84.02196884       75.11839390
 O    8.0      89.38404083       83.24228287       76.06191158
 C    6.0      92.47495651       83.37581635       75.31363964
 O    8.0      93.13592911       82.47446060       75.79507351
 C    6.0      92.59532928       84.33595657       78.39557171
 O    8.0      93.32954407       83.87069702       79.26241398
 C    6.0      89.83642578       83.11170578       79.93494511
 O    8.0      89.43769455       82.77332306       81.08097076
 C    6.0      90.04972458       79.88761425       78.14597607
 O    8.0      90.70758820       80.34357071       77.25610256
 C    6.0      90.25802612       77.44109631       76.10654354
 O    8.0      89.87091064       78.39640141       75.41616917
 C    6.0      88.65591049       75.93250751       73.72394085
 O    8.0      87.85490036       75.18386364       74.26359653
 C    6.0      86.22556686       75.71293354       71.70273304
 O    8.0      86.80942535       75.29798985       70.67628384
 C    6.0      83.41985703       74.48746204       70.48627377
 O    8.0      83.56882095       74.00057316       69.37774181
 C    6.0      81.99554443       76.94002628       69.08366680
 O    8.0      81.56110764       78.08437824       69.26693439
 C    6.0      82.41720200       77.51741886       65.73085308
 O    8.0      81.89725876       76.54325962       65.18164158
 C    6.0      81.81493759       79.72161770       63.18444729
 O    8.0      82.75220871       80.52989960       63.15382481
 C    6.0      80.97845078       79.27870274       59.62725639
 O    8.0      79.89372730       78.71986866       59.72236633
 C    6.0      82.02135086       78.72256756       56.18041992
 O    8.0      82.91372299       79.47404385       55.82191944
 C    6.0      82.19839096       77.82555103       53.32769394
 O    8.0      80.99439621       77.75893688       53.10317516
 C    6.0      83.24300766       77.29181767       50.00669479
 O    8.0      84.31913376       76.72420979       50.32018185
 C    6.0      82.97992706       76.11616611       46.42492771
 O    8.0      81.90076828       76.60969257       46.13018990
 C    6.0      84.24516678       74.64892864       43.37349892
 O    8.0      85.35615921       74.12666798       43.55763435
 C    6.0      83.40364456       72.78193951       40.38278103
 O    8.0      82.59597778       73.39800358       39.67404366
 C    6.0      84.06009674       69.83968258       38.54845524
 O    8.0      84.95973587       69.27297115       39.14566517
 C    6.0      82.95803070       67.28636265       36.33607388
 O    8.0      82.10683823       67.87698269       35.61969757
 C    6.0      83.69029999       64.39747334       34.20344830
 O    8.0      84.35884476       63.65625381       34.98707294
 C    6.0      82.47652054       62.17869282       31.59132481
 O    8.0      81.69683456       62.79405594       30.84970951
 C    6.0      81.77024841       59.98178959       29.53404903
 O    8.0      81.47556305       59.15393829       30.40808678
 C    6.0      79.36757565       58.49637985       27.71564484
 O    8.0      78.85177135       58.23776722       26.64257526
 C    6.0      79.22011852       55.28008938       27.48173237
 O    8.0      79.28469181       54.54267025       26.51510239
 C    6.0      75.73715687       55.32509327       27.67158985
 O    8.0      75.57768345       56.50288105       28.05970192
 C    6.0      72.73041248       55.74964523       28.02069664
 O    8.0      72.01464176       56.76720142       27.89616108
 C    6.0      73.06420803       57.03758717       30.96020222
 O    8.0      72.50952244       57.72172928       31.82271957
 C    6.0      74.60147381       59.57932472       30.01931667
 O    8.0      74.38045979       60.67361355       30.59066772
 C    6.0      72.61712551       60.54547310       28.03788662
 O    8.0      72.35810757       61.73250675       28.26328754
 C    6.0      70.24685383       60.78069687       30.02971172
 O    8.0      69.47675228       61.74974918       30.08605957
 C    6.0      71.47527218       62.78630257       32.17544556
 O    8.0      70.94941616       63.71356487       32.83110619
 C    6.0      72.04331875       65.16426086       30.24509907
 O    8.0      71.73069477       66.29484653       30.64620495
 C    6.0      69.19976711       65.76052666       29.15402412
 O    8.0      68.63807201       66.83959007       28.91703129
 C    6.0      67.63418674       66.11058235       31.94774628
 O    8.0      66.74074650       66.95582390       32.19392300
 C    6.0      69.52767849       68.30380917       32.70334721
 O    8.0      69.16107655       69.27451611       33.33517551
 C    6.0      68.63341808       70.08898258       30.51557541
 O    8.0      68.49625111       71.34539127       30.58800697
 C    6.0      65.87075710       70.56090832       31.44921303
 O    8.0      65.57450771       71.77264690       31.46171570
 C    6.0      66.11246586       71.35275364       34.47110653
 O    8.0      65.33568859       72.18399525       34.96151924
 C    6.0      67.55472660       74.09991741       33.92561436
 O    8.0      67.28385448       75.09894848       34.51329708
 C    6.0      65.25066853       75.23976803       31.86109066
 O    8.0      64.63115215       75.99335194       31.12662315
 C    6.0      62.52450466       74.75193501       34.20156479
 O    8.0      61.34361744       74.41986561       34.40611362
 C    6.0      63.45030308       76.79875851       37.31542110
 O    8.0      64.67791080       76.72352314       37.49355793
 C    6.0      63.44069004       78.47333431       40.16941547
 O    8.0      63.97087574       79.26669598       40.90005875
 C    6.0      64.55431461       75.65881252       41.71473980
 O    8.0      64.89441395       75.25404453       42.77022362
 C    6.0      67.33760357       74.38792706       41.35075092
 O    8.0      67.64067173       73.43384266       42.11227417
 C    6.0      68.68449688       75.65400600       43.93053055
 O    8.0      69.54896450       75.52667141       44.74761963
 C    6.0      66.35825634       74.06356335       46.01172447
 O    8.0      66.66212559       73.43853474       47.04381466
 C    6.0      66.12414837       71.14448071       44.81753349
 O    8.0      65.86805820       69.97696400       45.13387203
 C    6.0      68.90361309       70.13040066       45.64831734
 O    8.0      69.17459011       68.93892765       45.80869675
 C    6.0      68.17506313       69.37649250       48.57395172
 O    8.0      68.57757092       68.78484249       49.57604885
 C    6.0      66.59102917       66.56257153       47.76506901
 O    8.0      66.44454479       65.44278622       48.26370239
 C    6.0      68.90779018       65.37777901       46.36349201
 O    8.0      69.22486782       64.19610977       46.55230999
 C    6.0      70.93078136       65.43986320       48.78068447
 O    8.0      71.58149242       64.38575268       48.86843681
 C    6.0      68.94002438       64.07710075       51.12184048
 O    8.0      67.97845364       64.16173458       51.85780048
 N    7.0      69.12949085       62.98281193       50.35233498
 H    1.0      69.94589329       63.09964657       49.76929665
 CA   6.0      68.24810505       61.81827068       50.39744854
 HA   1.0      67.33131886       62.20845699       49.95546341
 CB   6.0      68.68416309       60.75315952       49.34434414
 HB   1.0      68.70810986       61.31038189       48.40784550
 CG2  6.0      70.02974987       60.09634018       49.54142570
 HG21 1.0      70.47104359       59.85201359       48.57516766
 HG22 1.0      69.97685909       59.23839092       50.21166325
 HG23 1.0      70.70192814       60.86503506       49.92271900
 CG1  6.0      67.64611721       59.61226940       49.08884048
 HG11 1.0      66.65359974       60.05561352       49.00848389
 HG12 1.0      67.68558979       58.86209965       49.87864017
 CD   6.0      67.93720722       58.77155304       47.85034180
 HD1  1.0      68.24179173       59.37207699       46.99319839
 HD2  1.0      67.09064960       58.13335896       47.59706974
 HD3  1.0      68.68749142       58.01165104       48.06883812
 H000 1.0      84.47190114       53.77804139       45.25916012
 H000 1.0      67.91884213       61.35599923       51.31496144
 $end 
!comment atoms to be erased:
!polarization points to remove: