 $contrl units=angs local=boys runtyp=makefp 
       mult=1 icharg=0 coord=cart icut=11 $end
 $system timlim=99999 mwords=200 $end
 $scf soscf=.f. dirscf=.t. diis=.t. CONV=1.0d-06 $end
 $basis gbasis=n31 ngauss=6 ndfunc=1 $end
 $DAMP IFTTYP(1)=2,0 IFTFIX(1)=1,1 thrsh=500.0 $end
 $MAKEFP POL=.t. DISP=.f. CHTR=.f. EXREP=.f. $end
 $data
 i_862_15248
 C1
 C    6.0      63.47132206       48.94865990       46.67420864
 O    8.0      64.37607288       49.25842762       47.46373653
 C    6.0      62.23970890       51.93935871       47.23999500
 O    8.0      61.00625515       51.99710846       47.06002235
 N    7.0      62.93344021       52.23080635       48.34148884
 H    1.0      63.92849445       52.34222889       48.20898533
 CA   6.0      62.28001118       52.55094528       49.64434147
 HA   1.0      61.19747639       52.42446899       49.65896130
 CB   6.0      62.91706562       51.83125973       50.83553791
 HB   1.0      63.92093182       52.23798275       50.95771313
 CG2  6.0      62.17369556       52.15812683       52.16434956
 HG21 1.0      62.75820255       51.98279858       53.06752682
 HG22 1.0      61.22491360       51.62716389       52.24159718
 HG23 1.0      61.91002369       53.21301937       52.24035740
 CG1  6.0      62.86665440       50.31298161       50.59659958
 HG11 1.0      63.49504948       50.05729198       49.74346161
 HG12 1.0      61.84630871       50.07313251       50.29747486
 CD   6.0      63.41617107       49.41572666       51.75162792
 HD1  1.0      64.25932407       49.91189003       52.23226070
 HD2  1.0      63.78565311       48.52920055       51.23620987
 HD3  1.0      62.67116070       49.23476219       52.52643108
 H000 1.0      63.33200326       49.99587991       46.45544068
 H000 1.0      62.34421503       53.62321916       49.74456863
 $end 
!comment atoms to be erased:
!polarization points to remove: