 $contrl units=angs local=boys runtyp=makefp 
       mult=1 icharg=1 coord=cart icut=11 $end
 $system timlim=99999 mwords=200 $end
 $scf soscf=.f. dirscf=.t. diis=.t. CONV=1.0d-06 $end
 $basis gbasis=n31 ngauss=6 ndfunc=1 $end
 $DAMP IFTTYP(1)=2,0 IFTFIX(1)=1,1 thrsh=500.0 $end
 $MAKEFP POL=.t. DISP=.f. CHTR=.f. EXREP=.f. $end
 $data
 k_1078_18619
 C1
 C    6.0      58.41510773       52.49512196       69.76052761
 O    8.0      58.09225559       53.65353107       69.69041348
 N    7.0      59.69167233       52.18115807       69.98387814
 H    1.0      59.87508297       51.19575500       70.10815144
 CA   6.0      60.78893185       53.19273472       70.07137775
 HA   1.0      60.47626019       53.97197247       70.76644421
 CB   6.0      62.04092503       52.42561817       70.54341793
 HB1  1.0      62.95609951       53.00620079       70.42728901
 HB2  1.0      62.15760708       51.54653549       69.90961552
 CG   6.0      61.88034534       51.94258213       72.01694012
 HG1  1.0      60.95695019       51.36408329       71.98896885
 HG2  1.0      61.91011906       52.71522045       72.78521061
 CD   6.0      62.99591541       50.94746113       72.29928493
 HD1  1.0      63.97525311       51.40695572       72.16565609
 HD2  1.0      62.85843372       50.15101910       71.56793118
 CE   6.0      62.86061764       50.33614159       73.73214245
 HE1  1.0      63.67182255       49.66486931       74.01400089
 HE2  1.0      62.00213909       49.66494083       73.70758533
 NZ   7.0      62.77720928       51.34754658       74.88292217
 HZ1  1.0      62.00616360       51.98782444       74.75796223
 HZ2  1.0      63.67075443       51.80521488       74.99350071
 HZ3  1.0      62.55509853       50.78419209       75.69125652
 H000 1.0      57.71921846       51.70304134       69.53186778
 H000 1.0      61.04290542       53.70147701       69.15452574
 $end 
!comment atoms to be erased:
!polarization points to remove: