 $contrl units=angs local=boys runtyp=makefp 
       mult=1 icharg=1 coord=cart icut=11 $end
 $system timlim=99999 mwords=200 $end
 $scf soscf=.f. dirscf=.t. diis=.t. CONV=1.0d-06 $end
 $basis gbasis=n31 ngauss=6 ndfunc=1 $end
 $DAMP IFTTYP(1)=2,0 IFTFIX(1)=1,1 thrsh=500.0 $end
 $MAKEFP POL=.t. DISP=.f. CHTR=.f. EXREP=.f. $end
 $data
 k_1027_17773
 C1
 C    6.0      59.45264339       56.15869999       72.80869961
 O    8.0      60.03322124       55.10987759       73.11559200
 N    7.0      59.87110615       57.34457493       73.23642254
 H    1.0      59.47803974       58.09051037       72.68039227
 CA   6.0      61.08966351       57.63241291       74.03683186
 HA   1.0      61.48022175       56.68601513       74.41084385
 CB   6.0      62.21797466       58.28007698       73.07470798
 HB1  1.0      63.15622807       58.37788582       73.62081051
 HB2  1.0      61.87048435       59.26333904       72.75762081
 CG   6.0      62.40641117       57.38758564       71.85077190
 HG1  1.0      61.54673100       57.41723061       71.18131161
 HG2  1.0      62.57874966       56.33314133       72.06651211
 CD   6.0      63.62333775       57.89756775       71.14501476
 HD1  1.0      64.54306126       57.90341854       71.72998905
 HD2  1.0      63.50809574       58.94107819       70.85192204
 CE   6.0      63.91824245       57.05125809       69.98234272
 HE1  1.0      63.51468563       56.06302261       70.20286083
 HE2  1.0      64.99714375       57.04617977       69.82724667
 NZ   7.0      63.39482784       57.82357693       68.82642269
 HZ1  1.0      63.88681889       58.69190693       68.67137432
 HZ2  1.0      62.38603115       57.87061691       68.81144047
 HZ3  1.0      63.67573261       57.38271236       67.96223164
 H000 1.0      58.65843328       56.13796034       72.07880985
 H000 1.0      60.93589060       58.27258346       74.89150984
 $end 
!comment atoms to be erased:
!polarization points to remove: