 $contrl units=angs local=boys runtyp=makefp 
       mult=1 icharg=1 coord=cart icut=11 $end
 $system timlim=99999 mwords=200 $end
 $scf soscf=.f. dirscf=.t. diis=.t. CONV=1.0d-06 $end
 $basis gbasis=n31 ngauss=6 ndfunc=1 $end
 $DAMP IFTTYP(1)=2,0 IFTFIX(1)=1,1 thrsh=500.0 $end
 $MAKEFP POL=.t. DISP=.f. CHTR=.f. EXREP=.f. $end
 $data
 k_23_317
 C1
 C    6.0      94.52449799       51.02240086       65.62811375
 O    8.0      94.26757812       50.99948406       64.39868450
 N    7.0      94.09448624       50.03585815       66.47636890
 H    1.0      94.27999496       50.18419743       67.45804310
 CA   6.0      93.11420441       48.97789955       66.03629589
 HA   1.0      92.63275146       49.19738293       65.08332729
 CB   6.0      93.84117126       47.73387909       65.63754559
 HB1  1.0      94.60540771       47.93408394       64.88659382
 HB2  1.0      93.14353943       47.00689316       65.22173405
 CG   6.0      94.58038330       47.16948509       66.87230587
 HG1  1.0      93.83090973       46.99023247       67.64317036
 HG2  1.0      95.38557053       47.80357361       67.24340916
 CD   6.0      95.25526047       45.82490921       66.52070522
 HD1  1.0      95.83728790       45.69322109       67.43284702
 HD2  1.0      95.90583801       45.98859787       65.66159725
 CE   6.0      94.32218552       44.66399193       66.23348713
 HE1  1.0      93.60227585       44.89826202       65.44929981
 HE2  1.0      93.79129410       44.44082260       67.15893269
 NZ   7.0      95.07387161       43.42452049       65.81735134
 HZ1  1.0      95.64907074       43.62783909       65.01243114
 HZ2  1.0      94.44904327       42.70151615       65.49031734
 HZ3  1.0      95.60741425       43.11556816       66.61733150
 H000 1.0      95.14204799       51.78603782       66.07468905
 H000 1.0      92.28452838       48.81059442       66.70531426
 $end 
!comment atoms to be erased:
!polarization points to remove: