 $contrl units=angs local=boys runtyp=makefp 
       mult=1 icharg=1 coord=cart icut=11 $end
 $system timlim=99999 mwords=200 $end
 $scf soscf=.f. dirscf=.t. diis=.t. CONV=1.0d-06 $end
 $basis gbasis=n31 ngauss=6 ndfunc=1 $end
 $DAMP IFTTYP(1)=2,0 IFTFIX(1)=1,1 thrsh=500.0 $end
 $MAKEFP POL=.t. DISP=.f. CHTR=.f. EXREP=.f. $end
 $data
 k_260_3964
 C1
 C    6.0      84.16547775       45.33605099       63.47413540
 O    8.0      84.54711914       44.82406139       64.53737736
 N    7.0      85.04838943       45.65042973       62.46407509
 H    1.0      84.70680237       45.89093208       61.54452324
 CA   6.0      86.52542114       45.57997704       62.70599365
 HA   1.0      86.78857803       45.60517311       63.76345158
 CB   6.0      87.12293625       44.19288158       62.17267990
 HB1  1.0      86.75399780       43.27324390       62.62683868
 HB2  1.0      88.20264816       44.24919605       62.31104374
 CG   6.0      87.04744339       44.09885406       60.65124512
 HG1  1.0      87.54667282       44.89452839       60.09828568
 HG2  1.0      86.01545334       44.15104389       60.30428886
 CD   6.0      87.67377853       42.78529644       60.20262718
 HD1  1.0      87.24798203       41.95268631       60.76259613
 HD2  1.0      88.76108170       42.83191204       60.26360035
 CE   6.0      87.40764618       42.57590771       58.74007225
 HE1  1.0      87.73614883       43.45522881       58.18601131
 HE2  1.0      86.33571625       42.69292355       58.58069420
 NZ   7.0      87.97521591       41.25436306       58.26983452
 HZ1  1.0      87.70530701       40.40513992       58.74530792
 HZ2  1.0      88.98153305       41.31235600       58.20621967
 HZ3  1.0      87.64631271       41.09339237       57.32854843
 H000 1.0      83.13352158       45.44722307       63.17977825
 H000 1.0      87.03087605       46.41664448       62.24943935
 $end 
!comment atoms to be erased:
!polarization points to remove: