 $contrl units=angs local=boys runtyp=makefp 
       mult=1 icharg=1 coord=cart icut=11 $end
 $system timlim=99999 mwords=200 $end
 $scf soscf=.f. dirscf=.t. diis=.t. CONV=1.0d-06 $end
 $basis gbasis=n31 ngauss=6 ndfunc=1 $end
 $DAMP IFTTYP(1)=2,0 IFTFIX(1)=1,1 thrsh=500.0 $end
 $MAKEFP POL=.t. DISP=.f. CHTR=.f. EXREP=.f. $end
 $data
 k_27_383
 C1
 C    6.0      81.94534302       43.96890640       67.40192890
 O    8.0      82.00172424       43.70874882       66.21510029
 N    7.0      80.92790604       43.64544392       68.18651676
 H    1.0      81.03433609       43.85136127       69.16955471
 CA   6.0      79.80410099       42.79216290       67.87587643
 HA   1.0      79.38506603       43.16344261       66.94064617
 CB   6.0      80.31105042       41.31196976       67.61348248
 HB1  1.0      80.89466095       41.02239609       68.48735332
 HB2  1.0      80.97455978       41.32846355       66.74885273
 CG   6.0      79.07258511       40.37608624       67.43916988
 HG1  1.0      78.49936962       40.84383011       66.63871288
 HG2  1.0      78.60501766       40.42068005       68.42278957
 CD   6.0      79.44136143       38.96294117       66.89796925
 HD1  1.0      79.75986958       38.45250130       67.80686855
 HD2  1.0      80.16016006       38.92628670       66.07938290
 CE   6.0      78.27101231       38.14231873       66.47505283
 HE1  1.0      77.74637699       38.54584217       65.60902119
 HE2  1.0      77.58543491       38.20609570       67.32004642
 NZ   7.0      78.73810291       36.72064781       66.25610828
 HZ1  1.0      78.02623272       36.02574348       66.43062115
 HZ2  1.0      79.48226452       36.46407127       66.88894749
 HZ3  1.0      78.99318218       36.53753281       65.29615879
 H000 1.0      82.73761722       44.55666479       67.83871324
 H000 1.0      78.98327579       42.83184261       68.57488316
 $end 
!comment atoms to be erased:
!polarization points to remove: