 $contrl units=angs local=boys runtyp=makefp 
       mult=1 icharg=1 coord=cart icut=11 $end
 $system timlim=99999 mwords=200 $end
 $scf soscf=.f. dirscf=.t. diis=.t. CONV=1.0d-06 $end
 $basis gbasis=n31 ngauss=6 ndfunc=1 $end
 $DAMP IFTTYP(1)=2,0 IFTFIX(1)=1,1 thrsh=500.0 $end
 $MAKEFP POL=.t. DISP=.f. CHTR=.f. EXREP=.f. $end
 $data
 k_295_4481
 C1
 C    6.0      70.52381039       55.18266678       70.67327976
 O    8.0      70.64143658       54.61892128       71.72954082
 N    7.0      69.41022396       55.82176208       70.31698704
 H    1.0      69.44927692       56.32231712       69.44061756
 CA   6.0      68.27905178       55.95037460       71.24969006
 HA   1.0      68.67331982       55.83469391       72.25927830
 CB   6.0      67.84783840       57.42921352       71.20173931
 HB1  1.0      66.93832874       57.49824047       71.79851055
 HB2  1.0      67.72585392       57.74499416       70.16563892
 CG   6.0      68.81589413       58.37584972       71.91749096
 HG1  1.0      69.81606960       58.18155766       71.53019428
 HG2  1.0      68.87987614       58.26085091       72.99951077
 CD   6.0      68.50836277       59.85133171       71.51343822
 HD1  1.0      67.52267361       60.15168190       71.86882496
 HD2  1.0      68.66045475       59.95953560       70.43953419
 CE   6.0      69.55408573       60.74822426       72.15733051
 HE1  1.0      70.48072338       60.19225597       72.01474667
 HE2  1.0      69.42791462       60.80103397       73.23871136
 NZ   7.0      69.68148708       62.15420246       71.63520336
 HZ1  1.0      68.88081074       62.61151791       72.04737186
 HZ2  1.0      69.63925838       62.16453075       70.62613964
 HZ3  1.0      70.52252293       62.58730888       71.98899746
 H000 1.0      71.29825032       55.13665383       69.92357015
 H000 1.0      67.48487026       55.23532502       71.10164041
 $end 
!comment atoms to be erased:
!polarization points to remove: