 $contrl units=angs local=boys runtyp=makefp 
       mult=1 icharg=1 coord=cart icut=11 $end
 $system timlim=99999 mwords=200 $end
 $scf soscf=.f. dirscf=.t. diis=.t. CONV=1.0d-06 $end
 $basis gbasis=n31 ngauss=6 ndfunc=1 $end
 $DAMP IFTTYP(1)=2,0 IFTFIX(1)=1,1 thrsh=500.0 $end
 $MAKEFP POL=.t. DISP=.f. CHTR=.f. EXREP=.f. $end
 $data
 k_306_4659
 C1
 C    6.0      92.37010956       49.16203499       76.37100697
 O    8.0      92.58506775       49.22183514       77.59839535
 N    7.0      93.34472656       48.82632732       75.53696156
 H    1.0      93.12263489       48.69337082       74.56069469
 CA   6.0      94.77104187       48.67944241       75.85490704
 HA   1.0      94.96212006       48.63094807       76.92693233
 CB   6.0      95.27166367       47.37368584       75.32922268
 HB1  1.0      95.02069473       47.26415634       74.27418232
 HB2  1.0      94.69043732       46.62036896       75.86101055
 CG   6.0      96.75226212       47.05091953       75.56950092
 HG1  1.0      96.86201096       46.85010433       76.63520336
 HG2  1.0      97.41960526       47.89652348       75.40304661
 CD   6.0      97.29196548       45.86844921       74.69222546
 HD1  1.0      98.28535080       45.53900719       74.99680042
 HD2  1.0      97.39889145       46.15907192       73.64714146
 CE   6.0      96.32776260       44.71359730       74.75798130
 HE1  1.0      95.35966873       45.04759789       74.38466549
 HE2  1.0      96.13805771       44.42798138       75.79264164
 NZ   7.0      96.76589966       43.59631538       73.88315678
 HZ1  1.0      97.70225525       43.22412014       73.95225048
 HZ2  1.0      96.56173706       43.74062538       72.90459156
 HZ3  1.0      96.08295441       42.88913250       74.11464214
 H000 1.0      91.40997153       49.41094111       75.94660197
 H000 1.0      95.27370244       49.53069726       75.42289266
 $end 
!comment atoms to be erased:
!polarization points to remove: