 $contrl units=angs local=boys runtyp=makefp 
       mult=1 icharg=1 coord=cart icut=11 $end
 $system timlim=99999 mwords=200 $end
 $scf soscf=.f. dirscf=.t. diis=.t. CONV=1.0d-06 $end
 $basis gbasis=n31 ngauss=6 ndfunc=1 $end
 $DAMP IFTTYP(1)=2,0 IFTFIX(1)=1,1 thrsh=500.0 $end
 $MAKEFP POL=.t. DISP=.f. CHTR=.f. EXREP=.f. $end
 $data
 k_346_5327
 C1
 C    6.0      75.19048214       55.53236961       71.95907116
 O    8.0      74.41725254       55.20611763       71.08242512
 N    7.0      74.65167522       56.19427204       72.98218250
 H    1.0      75.26698589       56.46086693       73.73743534
 CA   6.0      73.31987858       56.63462639       72.97206402
 HA   1.0      72.73635387       56.12897873       72.20270634
 CB   6.0      72.62217045       56.30409241       74.34225559
 HB1  1.0      71.56633854       56.42103195       74.09805775
 HB2  1.0      72.95873165       57.00665474       75.10463238
 CG   6.0      72.71747112       54.89053249       74.79431629
 HG1  1.0      73.73832226       54.51089382       74.75151539
 HG2  1.0      72.13280201       54.31780338       74.07442570
 CD   6.0      72.11677074       54.68082428       76.21455669
 HD1  1.0      71.24518871       55.32697678       76.31904125
 HD2  1.0      72.87209988       55.02276897       76.92212582
 CE   6.0      71.68305874       53.16602230       76.29022121
 HE1  1.0      72.37272739       52.51250267       75.75601101
 HE2  1.0      70.70744038       53.11361313       75.80697536
 NZ   7.0      71.58843517       52.76286602       77.72889614
 HZ1  1.0      71.45113468       51.76587582       77.81407833
 HZ2  1.0      70.84089756       53.20898056       78.24102879
 HZ3  1.0      72.41347790       52.95904160       78.27745914
 H000 1.0      76.25211220       55.34195319       71.98401306
 H000 1.0      73.22622706       57.67817237       72.71480911
 $end 
!comment atoms to be erased:
!polarization points to remove: