 $contrl units=angs local=boys runtyp=makefp 
       mult=1 icharg=1 coord=cart icut=11 $end
 $system timlim=99999 mwords=200 $end
 $scf soscf=.f. dirscf=.t. diis=.t. CONV=1.0d-06 $end
 $basis gbasis=n31 ngauss=6 ndfunc=1 $end
 $DAMP IFTTYP(1)=2,0 IFTFIX(1)=1,1 thrsh=500.0 $end
 $MAKEFP POL=.t. DISP=.f. CHTR=.f. EXREP=.f. $end
 $data
 k_44_621
 C1
 C    6.0      89.05755997       49.35126305       53.18779469
 O    8.0      89.55638885       48.83040428       54.19137001
 N    7.0      89.73304749       50.09019852       52.30237007
 H    1.0      89.21112061       50.52166462       51.55301094
 CA   6.0      91.07143402       50.65508842       52.63090611
 HA   1.0      91.32421494       50.64204693       53.69111538
 CB   6.0      92.21227646       49.84717846       51.97938919
 HB1  1.0      92.40049362       50.13039589       50.94379425
 HB2  1.0      91.88661575       48.81788254       52.12971687
 CG   6.0      93.63595963       49.99603271       52.66743660
 HG1  1.0      93.39824677       49.78361130       53.70977402
 HG2  1.0      93.99597168       51.01355553       52.51531601
 CD   6.0      94.62059021       48.92113686       52.33058929
 HD1  1.0      94.15208817       47.96800137       52.57581234
 HD2  1.0      95.48858643       48.99840832       52.98534870
 CE   6.0      94.97219086       48.77709389       50.79549789
 HE1  1.0      95.33790588       49.77444649       50.55130482
 HE2  1.0      94.03572083       48.50850582       50.30663013
 NZ   7.0      95.97230911       47.74000645       50.61495781
 HZ1  1.0      96.86750412       47.94539452       51.03511333
 HZ2  1.0      96.16371155       47.71207809       49.62365150
 HZ3  1.0      95.56613922       46.89848423       50.99830627
 H000 1.0      87.99237913       49.51480745       53.13698222
 H000 1.0      91.15732498       51.67917654       52.30256914
 $end 
!comment atoms to be erased:
!polarization points to remove: