 $contrl units=angs local=boys runtyp=makefp 
       mult=1 icharg=1 coord=cart icut=11 $end
 $system timlim=99999 mwords=200 $end
 $scf soscf=.f. dirscf=.t. diis=.t. CONV=1.0d-06 $end
 $basis gbasis=n31 ngauss=6 ndfunc=1 $end
 $DAMP IFTTYP(1)=2,0 IFTFIX(1)=1,1 thrsh=500.0 $end
 $MAKEFP POL=.t. DISP=.f. CHTR=.f. EXREP=.f. $end
 $data
 k_661_11127
 C1
 C    6.0      66.82780743       61.96611881       78.24823856
 O    8.0      66.81345463       60.96162319       78.94349575
 N    7.0      66.99972630       61.94152355       76.92739964
 H    1.0      67.02916622       62.81749249       76.42549038
 CA   6.0      66.73308849       60.74321270       76.15458012
 HA   1.0      66.08293056       60.11356354       76.76198483
 CB   6.0      66.08180523       61.15670681       74.85942364
 HB1  1.0      65.95358372       60.26648045       74.24366474
 HB2  1.0      66.72666073       61.93603039       74.45332050
 CG   6.0      64.64615345       61.70190811       74.97452259
 HG1  1.0      64.48200703       62.35539913       75.83132267
 HG2  1.0      63.96501064       60.86871147       75.14753819
 CD   6.0      64.31025028       62.24277973       73.65031719
 HD1  1.0      64.40113544       61.34150982       73.04405689
 HD2  1.0      65.06066799       62.99706459       73.41357708
 CE   6.0      62.85828114       62.64256477       73.57761860
 HE1  1.0      62.60294437       63.32266808       74.39024448
 HE2  1.0      62.19761372       61.79427624       73.75655651
 NZ   7.0      62.48543262       63.37778091       72.37214565
 HZ1  1.0      62.99679279       64.24632549       72.30713367
 HZ2  1.0      61.52266026       63.68090153       72.33600140
 HZ3  1.0      62.75949001       62.88678646       71.53315067
 H000 1.0      66.75362053       62.93995375       78.70658419
 H000 1.0      67.60630175       60.11758098       76.05446792
 $end 
!comment atoms to be erased:
!polarization points to remove: