 $contrl units=angs local=boys runtyp=makefp 
       mult=1 icharg=1 coord=cart icut=11 $end
 $system timlim=99999 mwords=200 $end
 $scf soscf=.f. dirscf=.t. diis=.t. CONV=1.0d-06 $end
 $basis gbasis=n31 ngauss=6 ndfunc=1 $end
 $DAMP IFTTYP(1)=2,0 IFTFIX(1)=1,1 thrsh=500.0 $end
 $MAKEFP POL=.t. DISP=.f. CHTR=.f. EXREP=.f. $end
 $data
 k_71_1046
 C1
 C    6.0      74.05409336       44.14525509       45.98322392
 O    8.0      74.20149326       44.52910423       47.11005211
 N    7.0      74.94715214       44.36442852       45.00811577
 H    1.0      74.83680248       43.93837929       44.09904480
 CA   6.0      76.35536671       44.83646870       45.35456181
 HA   1.0      76.48419857       44.86111641       46.43664360
 CB   6.0      77.28012562       43.81978989       44.73934650
 HB1  1.0      76.97644711       42.81698227       45.03976345
 HB2  1.0      78.22234631       43.87947559       45.28409958
 CG   6.0      77.56261349       43.75236034       43.22882652
 HG1  1.0      77.87236691       44.72960472       42.85849094
 HG2  1.0      76.60298824       43.41975212       42.83310413
 CD   6.0      78.63501072       42.69305229       42.92171001
 HD1  1.0      78.29960346       41.75764561       43.36960793
 HD2  1.0      79.59046841       42.97914505       43.36143017
 CE   6.0      78.82212162       42.53969193       41.40566826
 HE1  1.0      77.91491985       42.21051693       40.89899540
 HE2  1.0      79.54179287       41.72915936       41.29072189
 NZ   7.0      79.46943760       43.71562958       40.72013855
 HZ1  1.0      80.31227112       44.08382893       41.13749504
 HZ2  1.0      78.87663364       44.52180862       40.58322430
 HZ3  1.0      79.78743076       43.42987537       39.80508327
 H000 1.0      73.18663357       43.57181333       45.69579225
 H000 1.0      76.61635966       45.79021473       44.92306431
 $end 
!comment atoms to be erased:
!polarization points to remove: