 $contrl units=angs local=boys runtyp=makefp 
       mult=1 icharg=1 coord=cart icut=11 $end
 $system timlim=99999 mwords=200 $end
 $scf soscf=.f. dirscf=.t. diis=.t. CONV=1.0d-06 $end
 $basis gbasis=n31 ngauss=6 ndfunc=1 $end
 $DAMP IFTTYP(1)=2,0 IFTFIX(1)=1,1 thrsh=500.0 $end
 $MAKEFP POL=.t. DISP=.f. CHTR=.f. EXREP=.f. $end
 $data
 k_73_1082
 C1
 C    6.0      79.76321697       48.42828751       45.34340858
 O    8.0      80.39161682       47.77935505       46.18503571
 N    7.0      80.36104202       49.50649261       44.72402096
 H    1.0      79.79224682       49.99847889       44.04983044
 CA   6.0      81.78007126       49.88636494       44.88909245
 HA   1.0      82.03979492       49.69816685       45.93083382
 CB   6.0      82.53973007       48.88745785       44.01257038
 HB1  1.0      82.36795425       49.08696651       42.95484066
 HB2  1.0      82.37541199       47.83473015       44.24249172
 CG   6.0      84.07175064       48.99289131       44.36088562
 HG1  1.0      84.19900894       48.63560200       45.38277149
 HG2  1.0      84.48055267       49.98216629       44.15515900
 CD   6.0      84.87958908       47.96400547       43.55012417
 HD1  1.0      84.95946884       48.21104050       42.49149799
 HD2  1.0      84.45663452       46.96028233       43.59188080
 CE   6.0      86.26979828       47.86911011       44.13066864
 HE1  1.0      86.01640701       47.29788303       45.02374649
 HE2  1.0      86.68584824       48.86121750       44.30599213
 NZ   7.0      87.31029510       47.00507164       43.43047619
 HZ1  1.0      88.13867569       47.11629868       43.99750233
 HZ2  1.0      87.57196426       47.38413811       42.53162384
 HZ3  1.0      86.99129105       46.05446339       43.30935478
 H000 1.0      78.75175127       48.24367278       45.01661594
 H000 1.0      81.97648049       50.90851586       44.60524425
 $end 
!comment atoms to be erased:
!polarization points to remove: