 $contrl units=angs local=boys runtyp=makefp 
       mult=1 icharg=0 coord=cart icut=11 $end
 $system timlim=99999 mwords=200 $end
 $scf soscf=.f. dirscf=.t. diis=.t. CONV=1.0d-06 $end
 $basis gbasis=n31 ngauss=6 ndfunc=1 $end
 $DAMP IFTTYP(1)=2,0 IFTFIX(1)=1,1 thrsh=500.0 $end
 $MAKEFP POL=.t. DISP=.f. CHTR=.f. EXREP=.f. $end
 $data
 l_12_151
 C1
 C    6.0      98.35363388       51.18688107       71.03141308
 O    8.0      98.72888565       50.79571724       72.17621326
 C    6.0     101.41828537       52.27076054       69.65565205
 O    8.0     101.24032974       52.62017727       68.51914883
 C    6.0     104.47111130       53.67327213       69.99027729
 O    8.0     104.88586426       52.58928299       70.37115574
 C    6.0     107.61608124       55.40027618       69.59086895
 O    8.0     108.76428604       54.93433952       69.80690479
 C    6.0     107.62451172       58.86194229       70.98622799
 O    8.0     106.55866623       59.20438766       70.53308964
 C    6.0     107.79514313       61.90301895       71.54511929
 O    8.0     106.63080215       62.27765083       71.39088154
 C    6.0     107.67940521       62.80052185       68.48036289
 O    8.0     107.30707169       63.64082336       67.58677959
 C    6.0     104.95523453       61.22792721       67.63024807
 O    8.0     104.53292847       60.62390327       68.64132404
 C    6.0     102.06193924       60.49243450       66.49084568
 O    8.0     100.82427979       60.39014339       66.45503521
 C    6.0     101.97877884       57.40243435       66.31048679
 O    8.0     102.42391586       57.37120152       67.48054981
 C    6.0      99.92263794       54.33742523       65.54570675
 O    8.0      99.12960052       54.71084595       64.65501308
 N    7.0     100.12773514       53.06777000       65.87977886
 H    1.0     100.60407639       52.99777031       66.76764011
 CA   6.0      99.16561127       52.06298351       65.54333210
 HA   1.0      98.81397247       52.23719120       64.52641964
 CB   6.0      99.77851868       50.62531471       65.62546253
 HB1  1.0      99.92845535       50.32500267       66.66249752
 HB2  1.0     100.80606461       50.66432476       65.26387691
 CG   6.0      98.97117615       49.56435204       64.82076168
 HG1  1.0      98.95944595       49.80956078       63.75876904
 HG2  1.0      97.95364380       49.53374863       65.21038532
 CD   6.0      99.59369659       48.16360950       65.06722927
 HD1  1.0      99.50208664       47.92299747       66.12638950
 HD2  1.0     100.58105469       48.19566250       64.60660458
 CE   6.0      98.72119904       47.16295719       64.24328327
 HE1  1.0      98.72705460       47.45115280       63.19208622
 HE2  1.0      97.78974533       47.27321148       64.79856968
 NZ   7.0      99.20141220       45.77935219       64.32770252
 HZ1  1.0      98.67116928       45.23733616       63.66049290
 HZ2  1.0      99.16095734       45.41625023       65.26931286
 HZ3  1.0     100.14692307       45.61816216       64.01129246
 H000 1.0      98.72923561       51.86803024       70.28381824
 H000 1.0      98.25517921       52.14823826       66.11585632
 $end 
!comment atoms to be erased:
!polarization points to remove: