 $contrl units=angs local=boys runtyp=makefp 
       mult=1 icharg=0 coord=cart icut=11 $end
 $system timlim=99999 mwords=200 $end
 $scf soscf=.f. dirscf=.t. diis=.t. CONV=1.0d-06 $end
 $basis gbasis=n31 ngauss=6 ndfunc=1 $end
 $DAMP IFTTYP(1)=2,0 IFTFIX(1)=1,1 thrsh=500.0 $end
 $MAKEFP POL=.t. DISP=.f. CHTR=.f. EXREP=.f. $end
 $data
 l_284_4313
 C1
 C    6.0      83.86907578       64.85040188       67.85406590
 O    8.0      83.49920273       63.76632214       68.35390568
 N    7.0      83.10930252       65.91870785       67.52857685
 H    1.0      83.49220276       66.67543411       66.98008060
 CA   6.0      81.78533554       66.11369133       67.96614170
 HA   1.0      81.74116135       65.73551655       68.98748875
 CB   6.0      81.36852264       67.59611130       67.94250011
 HB1  1.0      80.28457642       67.65455723       67.84364223
 HB2  1.0      81.61481857       68.05316448       66.98409557
 CG   6.0      81.62542343       68.53618145       69.14767742
 HG   1.0      81.34014130       69.57367420       68.97353649
 CD1  6.0      81.01398468       68.10929775       70.47531605
 HD11 1.0      81.63644791       67.29206562       70.83969593
 HD12 1.0      80.02281189       67.66093254       70.40718555
 HD13 1.0      81.06544495       68.85330677       71.27024174
 CD2  6.0      83.17207336       68.50957394       69.37828541
 HD21 1.0      83.32530975       69.14391994       70.25133610
 HD22 1.0      83.67546082       68.62840176       68.41881275
 HD23 1.0      83.45586777       67.52861977       69.75943089
 H000 1.0      84.90960101       64.90325908       67.57397259
 H000 1.0      81.04586470       65.59694731       67.37445141
 $end 
!comment atoms to be erased:
!polarization points to remove: