 $contrl units=angs local=boys runtyp=makefp 
       mult=1 icharg=0 coord=cart icut=11 $end
 $system timlim=99999 mwords=200 $end
 $scf soscf=.f. dirscf=.t. diis=.t. CONV=1.0d-06 $end
 $basis gbasis=n31 ngauss=6 ndfunc=1 $end
 $DAMP IFTTYP(1)=2,0 IFTFIX(1)=1,1 thrsh=500.0 $end
 $MAKEFP POL=.t. DISP=.f. CHTR=.f. EXREP=.f. $end
 $data
 l_280_4249
 C1
 C    6.0      94.93684769       62.60216713       72.57345676
 O    8.0      94.66999054       63.31855774       73.51841450
 N    7.0      94.66819763       62.80830383       71.29114628
 H    1.0      95.03927231       62.14344025       70.62755108
 CA   6.0      93.92011642       63.98119926       70.92567921
 HA   1.0      94.47132111       64.77066994       71.43657207
 CB   6.0      94.17116165       64.30918217       69.39550877
 HB1  1.0      95.15872955       63.97423744       69.07830715
 HB2  1.0      94.32304382       65.38041115       69.26325321
 CG   6.0      93.04117203       63.79385948       68.42658520
 HG   1.0      92.07601547       64.17270660       68.76278400
 CD1  6.0      93.29799652       64.34102535       66.98224545
 HD11 1.0      92.53023148       63.78856659       66.44056797
 HD12 1.0      94.27431107       64.09780979       66.56296253
 HD13 1.0      93.11504364       65.41323662       66.91159725
 CD2  6.0      92.92467117       62.22979069       68.32863331
 HD21 1.0      92.86636353       61.75435543       69.30775166
 HD22 1.0      93.72154236       61.88253403       67.67098904
 HD23 1.0      92.05087662       61.95979118       67.73560047
 H000 1.0      95.56498925       61.77008384       72.85097159
 H000 1.0      92.93262221       64.10032313       71.34353515
 $end 
!comment atoms to be erased:
!polarization points to remove: