 $contrl units=angs local=boys runtyp=makefp 
       mult=1 icharg=0 coord=cart icut=11 $end
 $system timlim=99999 mwords=200 $end
 $scf soscf=.f. dirscf=.t. diis=.t. CONV=1.0d-06 $end
 $basis gbasis=n31 ngauss=6 ndfunc=1 $end
 $DAMP IFTTYP(1)=2,0 IFTFIX(1)=1,1 thrsh=500.0 $end
 $MAKEFP POL=.t. DISP=.f. CHTR=.f. EXREP=.f. $end
 $data
 l_287_4365
 C1
 C    6.0      79.34817791       60.59783459       65.89285374
 O    8.0      78.39335918       59.87570286       65.74554920
 N    7.0      79.72338200       61.10561371       67.10256100
 H    1.0      80.50544739       61.74472332       67.10641384
 CA   6.0      78.99765491       60.96968651       68.35055828
 HA   1.0      78.93338680       59.90991592       68.59726429
 CB   6.0      79.81719494       61.65527344       69.40801144
 HB1  1.0      79.57172871       62.71360874       69.49622631
 HB2  1.0      80.85927963       61.37380123       69.25661564
 CG   6.0      79.68113422       61.04611874       70.83352566
 HG   1.0      79.98091221       60.00395775       70.72334766
 CD1  6.0      80.72669983       61.60766125       71.80632114
 HD11 1.0      80.75231552       61.09848499       72.76975155
 HD12 1.0      80.61384201       62.68204212       71.95145130
 HD13 1.0      81.75518036       61.53635502       71.45246029
 CD2  6.0      78.24738979       61.19244576       71.38954639
 HD21 1.0      78.25060368       60.73363781       72.37827778
 HD22 1.0      77.61688709       60.60334682       70.72356701
 HD23 1.0      78.04111958       62.26274967       71.39111042
 H000 1.0      79.87372782       60.96139479       65.02362410
 H000 1.0      77.98795357       61.33124102       68.23342396
 $end 
!comment atoms to be erased:
!polarization points to remove: