 $contrl units=angs local=boys runtyp=makefp 
       mult=1 icharg=0 coord=cart icut=11 $end
 $system timlim=99999 mwords=200 $end
 $scf soscf=.f. dirscf=.t. diis=.t. CONV=1.0d-06 $end
 $basis gbasis=n31 ngauss=6 ndfunc=1 $end
 $DAMP IFTTYP(1)=2,0 IFTFIX(1)=1,1 thrsh=500.0 $end
 $MAKEFP POL=.t. DISP=.f. CHTR=.f. EXREP=.f. $end
 $data
 l_309_4697
 C1
 C    6.0      98.82713318       50.92274189       75.56899548
 O    8.0      99.00922775       50.33077717       76.62553310
 C    6.0     101.82382584       52.38299847       74.75632191
 O    8.0     101.63972855       52.95328140       73.73213291
 C    6.0     104.80169296       53.81078243       75.25282383
 O    8.0     105.11476517       52.64734745       75.10509968
 C    6.0     107.82978058       54.10870552       75.77899456
 O    8.0     107.43236542       54.22170639       76.95814610
 C    6.0     110.20692825       53.72182846       77.56898403
 O    8.0     111.05436325       54.55954552       77.39472866
 C    6.0     108.95875931       55.32047749       80.44496536
 O    8.0     108.97968292       55.93477726       81.52427673
 C    6.0     105.89658737       55.87552547       80.90681076
 O    8.0     105.73226929       54.62512016       81.03313446
 C    6.0     102.91383743       57.38965511       82.58626938
 O    8.0     103.00725937       58.45188141       82.03395844
 C    6.0     100.68635941       59.06692505       84.36391830
 O    8.0     100.95813751       58.76585484       85.49573898
 C    6.0      98.86985779       61.78070545       85.42697906
 O    8.0      98.65924835       61.80928707       86.62105560
 C    6.0      95.67020416       60.81214905       83.71131897
 O    8.0      95.93389511       60.83342552       82.48380661
 C    6.0      92.17689514       59.56183434       83.81282806
 O    8.0      91.92396164       59.33407307       84.99753952
 C    6.0      88.80424500       59.09112930       82.21782684
 O    8.0      88.67420197       59.72939014       81.11520767
 N    7.0      88.03829193       58.02365780       82.51152039
 CD   6.0      87.06010818       57.48665333       81.68460846
 HD1  1.0      87.56792068       56.74410820       81.06908798
 HD2  1.0      86.47834778       58.20115566       81.10223770
 CG   6.0      86.16596222       56.66164398       82.59990692
 HG1  1.0      85.47166824       55.99141598       82.09310532
 HG2  1.0      85.55009842       57.37262726       83.15065384
 CB   6.0      87.12821960       55.93724728       83.44661713
 HB1  1.0      86.81236267       55.67249298       84.45569992
 HB2  1.0      87.54201889       55.07681847       82.92076111
 CA   6.0      88.12011719       57.12230206       83.63624573
 HA   1.0      87.75627136       57.71499634       84.47555542
 H000 1.0      98.16575085       51.56155327       76.13329357
 H000 1.0      89.14264433       56.78856297       83.71988399
 $end 
!comment atoms to be erased:
!polarization points to remove: