 $contrl units=angs local=boys runtyp=makefp 
       mult=1 icharg=0 coord=cart icut=11 $end
 $system timlim=99999 mwords=200 $end
 $scf soscf=.f. dirscf=.t. diis=.t. CONV=1.0d-06 $end
 $basis gbasis=n31 ngauss=6 ndfunc=1 $end
 $DAMP IFTTYP(1)=2,0 IFTFIX(1)=1,1 thrsh=500.0 $end
 $MAKEFP POL=.t. DISP=.f. CHTR=.f. EXREP=.f. $end
 $data
 l_305_4640
 C1
 C    6.0      88.99593353       48.03212166       75.84151745
 O    8.0      88.81555557       48.04260731       74.65036869
 N    7.0      90.02948761       48.62008095       76.36919498
 H    1.0      90.23517609       48.32225800       77.31211185
 CA   6.0      90.98964691       49.51990604       75.76080799
 HA   1.0      91.07757568       49.36823368       74.68500614
 CB   6.0      90.56806564       51.00650311       75.99547863
 HB1  1.0      90.23958206       50.99374771       77.03471661
 HB2  1.0      89.70962524       51.28147125       75.38261890
 CG   6.0      91.70068741       52.04003811       75.78902721
 HG   1.0      92.53566742       51.67225838       76.38537884
 CD1  6.0      92.18706131       52.20768929       74.35523510
 HD11 1.0      92.52609253       51.23828411       73.98996830
 HD12 1.0      93.03123474       52.88671970       74.23525333
 HD13 1.0      91.37628555       52.49392986       73.68529797
 CD2  6.0      91.20679855       53.33080769       76.41521931
 HD21 1.0      91.13534927       53.24363708       77.49937534
 HD22 1.0      90.27721405       53.75618935       76.03699207
 HD23 1.0      92.01152802       54.04376030       76.23581409
 H000 1.0      88.34417349       47.44708230       76.47149896
 H000 1.0      91.94978494       49.27099992       76.18521299
 $end 
!comment atoms to be erased:
!polarization points to remove: