 $contrl units=angs local=boys runtyp=makefp 
       mult=1 icharg=0 coord=cart icut=11 $end
 $system timlim=99999 mwords=200 $end
 $scf soscf=.f. dirscf=.t. diis=.t. CONV=1.0d-06 $end
 $basis gbasis=n31 ngauss=6 ndfunc=1 $end
 $DAMP IFTTYP(1)=2,0 IFTFIX(1)=1,1 thrsh=500.0 $end
 $MAKEFP POL=.t. DISP=.f. CHTR=.f. EXREP=.f. $end
 $data
 l_36_508
 C1
 C    6.0      65.55975437       47.54076004       55.34622669
 O    8.0      64.57570553       46.80389404       55.23343563
 N    7.0      66.78218365       47.25365639       54.88580227
 H    1.0      67.53257275       47.88481712       55.12797356
 CA   6.0      67.16260433       46.04835510       54.20742035
 HA   1.0      66.34459972       45.34049511       54.34119701
 CB   6.0      67.22856045       46.23983860       52.65071869
 HB1  1.0      67.44352818       45.23747444       52.28037357
 HB2  1.0      68.06402683       46.93913460       52.61806965
 CG   6.0      65.91851711       46.65944576       51.91565990
 HG   1.0      65.54047108       47.45625496       52.55618572
 CD1  6.0      66.26077175       47.02197552       50.45646667
 HD11 1.0      66.89556599       46.30430222       49.93679047
 HD12 1.0      66.72637463       48.00540924       50.52099228
 HD13 1.0      65.37717342       47.23424435       49.85455036
 CD2  6.0      64.84684467       45.54840088       51.85629845
 HD21 1.0      64.01799679       46.00403786       51.31453991
 HD22 1.0      64.54572201       45.32485485       52.87975311
 HD23 1.0      65.08373737       44.58918095       51.39599800
 H000 1.0      65.39513963       48.48268557       55.84584373
 H000 1.0      68.05411615       45.59076930       54.60712125
 $end 
!comment atoms to be erased:
!polarization points to remove: