 $contrl units=angs local=boys runtyp=makefp 
       mult=1 icharg=0 coord=cart icut=11 $end
 $system timlim=99999 mwords=200 $end
 $scf soscf=.f. dirscf=.t. diis=.t. CONV=1.0d-06 $end
 $basis gbasis=n31 ngauss=6 ndfunc=1 $end
 $DAMP IFTTYP(1)=2,0 IFTFIX(1)=1,1 thrsh=500.0 $end
 $MAKEFP POL=.t. DISP=.f. CHTR=.f. EXREP=.f. $end
 $data
 l_37_527
 C1
 C    6.0      68.41313839       45.40649414       54.76808548
 O    8.0      69.31227207       46.17942333       55.17336369
 N    7.0      68.43982220       44.09477234       54.87654209
 H    1.0      67.74534702       43.63132477       54.30818081
 CA   6.0      69.45424557       43.18531036       55.48532963
 HA   1.0      70.45967579       43.56747627       55.30883312
 CB   6.0      69.26703930       43.11833858       56.96922302
 HB1  1.0      69.92202282       42.34131813       57.36335754
 HB2  1.0      68.26542377       42.71914005       57.12893963
 CG   6.0      69.49767590       44.42513943       57.81578541
 HG   1.0      68.85523319       45.21960258       57.43605614
 CD1  6.0      69.13538456       44.26342010       59.28358078
 HD11 1.0      69.78188038       43.47919464       59.67746735
 HD12 1.0      68.06019306       44.08622742       59.25802708
 HD13 1.0      69.25085545       45.27368546       59.67617512
 CD2  6.0      71.01726055       44.78368282       57.71596909
 HD21 1.0      71.52787685       43.83877754       57.90175915
 HD22 1.0      71.27508640       45.52295208       58.47433090
 HD23 1.0      71.13249302       45.20199299       56.71604633
 H000 1.0      67.52162657       45.86407994       54.36838458
 H000 1.0      69.38567284       42.23347134       54.98210089
 $end 
!comment atoms to be erased:
!polarization points to remove: