 $contrl units=angs local=boys runtyp=makefp 
       mult=1 icharg=0 coord=cart icut=11 $end
 $system timlim=99999 mwords=200 $end
 $scf soscf=.f. dirscf=.t. diis=.t. CONV=1.0d-06 $end
 $basis gbasis=n31 ngauss=6 ndfunc=1 $end
 $DAMP IFTTYP(1)=2,0 IFTFIX(1)=1,1 thrsh=500.0 $end
 $MAKEFP POL=.t. DISP=.f. CHTR=.f. EXREP=.f. $end
 $data
 l_45_643
 C1
 C    6.0      91.19287491       52.10304260       52.16667175
 O    8.0      90.68227768       52.43502617       51.13410473
 N    7.0      91.98616028       52.91554928       52.90047646
 H    1.0      92.43978500       52.54254341       53.72217178
 CA   6.0      92.29494095       54.33637142       52.76706219
 HA   1.0      92.01383591       54.70127583       51.77917480
 CB   6.0      91.36245728       55.04937649       53.76195908
 HB1  1.0      91.37323380       54.56197739       54.73685265
 HB2  1.0      90.36727905       55.05002499       53.31728458
 CG   6.0      91.79616928       56.48858547       54.01561737
 HG   1.0      92.84238815       56.55671120       54.31376934
 CD1  6.0      91.68947220       57.39785671       52.77276039
 HD11 1.0      92.31502533       57.10983276       51.92787647
 HD12 1.0      92.14900970       58.34675312       53.04937363
 HD13 1.0      90.65423965       57.53634930       52.46098042
 CD2  6.0      90.89807510       57.10721016       55.13860226
 HD21 1.0      91.10151291       56.57260895       56.06645584
 HD22 1.0      89.90789413       57.37871647       54.77267265
 HD23 1.0      91.41130447       58.05240631       55.31551361
 H000 1.0      91.10698395       51.07895448       52.49500872
 H000 1.0      93.36042737       54.43167915       52.90704089
 $end 
!comment atoms to be erased:
!polarization points to remove: