 $contrl units=angs local=boys runtyp=makefp 
       mult=1 icharg=0 coord=cart icut=11 $end
 $system timlim=99999 mwords=200 $end
 $scf soscf=.f. dirscf=.t. diis=.t. CONV=1.0d-06 $end
 $basis gbasis=n31 ngauss=6 ndfunc=1 $end
 $DAMP IFTTYP(1)=2,0 IFTFIX(1)=1,1 thrsh=500.0 $end
 $MAKEFP POL=.t. DISP=.f. CHTR=.f. EXREP=.f. $end
 $data
 l_74_1104
 C1
 C    6.0      82.06663132       51.37767792       44.47495937
 O    8.0      81.26621246       52.04536915       43.83262157
 N    7.0      83.19004059       51.96858883       44.94656086
 H    1.0      83.67233276       51.29642963       45.52595615
 CA   6.0      83.74414444       53.29326153       44.78064537
 HA   1.0      83.46242905       53.56655121       43.76376152
 CB   6.0      83.05973053       54.15645599       45.87622643
 HB1  1.0      83.42428207       53.73390675       46.81252003
 HB2  1.0      81.97805405       54.06793118       45.77498913
 CG   6.0      83.53170395       55.63304901       45.84617615
 HG   1.0      84.59669113       55.71442127       46.06368065
 CD1  6.0      83.42334747       56.30674839       44.51113224
 HD11 1.0      82.37222672       56.41204357       44.24253941
 HD12 1.0      83.91748428       55.68739891       43.76256466
 HD13 1.0      83.79610062       57.32973099       44.56262112
 CD2  6.0      82.77763367       56.31782055       46.94964409
 HD21 1.0      81.85588837       56.78918362       46.60861492
 HD22 1.0      83.40702057       57.18348026       47.15605736
 HD23 1.0      82.53242493       55.75467587       47.85011768
 H000 1.0      81.87022209       50.35552700       44.75880757
 H000 1.0      84.81276038       53.18835511       44.88549538
 $end 
!comment atoms to be erased:
!polarization points to remove: