 $contrl units=angs local=boys runtyp=makefp 
       mult=1 icharg=0 coord=cart icut=11 $end
 $system timlim=99999 mwords=200 $end
 $scf soscf=.f. dirscf=.t. diis=.t. CONV=1.0d-06 $end
 $basis gbasis=n31 ngauss=6 ndfunc=1 $end
 $DAMP IFTTYP(1)=2,0 IFTFIX(1)=1,1 thrsh=500.0 $end
 $MAKEFP POL=.t. DISP=.f. CHTR=.f. EXREP=.f. $end
 $data
 m_1024_17733
 C1
 C    6.0      59.78394985       58.44255924       68.10328007
 O    8.0      60.73470592       58.32372665       68.89540195
 N    7.0      59.10300732       59.60894108       67.94212818
 H    1.0      58.47317219       59.56901550       67.15357304
 CA   6.0      59.25658703       60.82494736       68.74026775
 HA   1.0      60.33297062       60.84278584       68.91109943
 CB   6.0      58.73155117       62.03751087       67.93833256
 HB1  1.0      59.07495022       62.91517735       68.48595142
 HB2  1.0      57.66005039       61.95140362       67.75787830
 CG   6.0      59.43487644       62.29477406       66.66888714
 HG1  1.0      59.33106899       61.40031338       66.05467319
 HG2  1.0      60.48885822       62.40006447       66.92602634
 SD   16.0      58.68283749       63.56832027       65.61807156
 CE   6.0      59.10491467       64.97817993       66.65442944
 HE1  1.0      58.59429836       65.86681366       66.28333569
 HE2  1.0      60.18552303       65.12026310       66.66811466
 HE3  1.0      58.94954205       64.69091892       67.69435406
 H000 1.0      59.45112898       57.56196173       67.57629127
 H000 1.0      58.72541067       60.82265024       69.67930199
 $end 
!comment atoms to be erased:
!polarization points to remove: