 $contrl units=angs local=boys runtyp=makefp 
       mult=1 icharg=0 coord=cart icut=11 $end
 $system timlim=99999 mwords=200 $end
 $scf soscf=.f. dirscf=.t. diis=.t. CONV=1.0d-06 $end
 $basis gbasis=n31 ngauss=6 ndfunc=1 $end
 $DAMP IFTTYP(1)=2,0 IFTFIX(1)=1,1 thrsh=500.0 $end
 $MAKEFP POL=.t. DISP=.f. CHTR=.f. EXREP=.f. $end
 $data
 m_292_4441
 C1
 C    6.0      71.72975063       59.59234238       68.56713772
 O    8.0      70.81858158       59.39651489       69.38378811
 N    7.0      71.51629925       59.85030174       67.29400158
 H    1.0      72.32221127       60.09579659       66.73692226
 CA   6.0      70.25920391       59.81535435       66.55478954
 HA   1.0      69.43539143       60.33823013       67.04061031
 CB   6.0      70.45123577       60.41095257       65.15300274
 HB1  1.0      69.50771809       60.16553402       64.66549397
 HB2  1.0      71.23013020       59.92150784       64.56831455
 CG   6.0      70.77956676       61.90562725       65.13855457
 HG1  1.0      71.76850796       62.00878143       65.58518887
 HG2  1.0      69.98823643       62.41072178       65.69242001
 SD   16.0      70.86540699       62.71704197       63.50819588
 CE   6.0      69.07888889       62.87316322       63.16673756
 HE1  1.0      68.62088680       63.45574856       63.96606922
 HE2  1.0      68.61640453       61.88700199       63.12556744
 HE3  1.0      68.86403561       63.46762657       62.27873325
 H000 1.0      72.75469975       59.60233250       68.90376570
 H000 1.0      69.85087636       58.83063116       66.38887466
 $end 
!comment atoms to be erased:
!polarization points to remove: