 $contrl units=angs local=boys runtyp=makefp 
       mult=1 icharg=0 coord=cart icut=11 $end
 $system timlim=99999 mwords=200 $end
 $scf soscf=.f. dirscf=.t. diis=.t. CONV=1.0d-06 $end
 $basis gbasis=n31 ngauss=6 ndfunc=1 $end
 $DAMP IFTTYP(1)=2,0 IFTFIX(1)=1,1 thrsh=500.0 $end
 $MAKEFP POL=.t. DISP=.f. CHTR=.f. EXREP=.f. $end
 $data
 m_658_11087
 C1
 C    6.0      65.30722141       65.80570221       75.81364155
 O    8.0      65.73052883       64.69924927       75.55668354
 N    7.0      65.73487759       66.92237854       75.22625446
 H    1.0      65.42312145       67.83854961       75.51529408
 CA   6.0      66.90215588       66.85659885       74.32433605
 HA   1.0      66.84475422       66.07134819       73.57055187
 CB   6.0      67.13696957       68.17303181       73.59861851
 HB1  1.0      67.95334339       68.12199116       72.87819386
 HB2  1.0      67.41620541       68.93259525       74.32881832
 CG   6.0      65.93277454       68.58371258       72.82986164
 HG1  1.0      65.01804829       68.60450268       73.42225552
 HG2  1.0      65.72901249       67.85177708       72.04827785
 SD   16.0      65.96446514       70.21110058       72.05863476
 CE   6.0      66.78454876       69.77985859       70.50246716
 HE1  1.0      67.70443439       69.21567440       70.65612316
 HE2  1.0      66.96742535       70.71048260       69.96527195
 HE3  1.0      66.06886387       69.23764706       69.88447666
 H000 1.0      64.56432327       65.96326044       76.57994218
 H000 1.0      67.82298192       66.57898166       74.81315809
 $end 
!comment atoms to be erased:
!polarization points to remove: