 $contrl units=angs local=boys runtyp=makefp 
       mult=1 icharg=0 coord=cart icut=11 $end
 $system timlim=99999 mwords=200 $end
 $scf soscf=.f. dirscf=.t. diis=.t. CONV=1.0d-06 $end
 $basis gbasis=n31 ngauss=6 ndfunc=1 $end
 $DAMP IFTTYP(1)=2,0 IFTFIX(1)=1,1 thrsh=500.0 $end
 $MAKEFP POL=.t. DISP=.f. CHTR=.f. EXREP=.f. $end
 $data
 n_1029_17815
 C1
 C    6.0      58.80488396       58.59366417       78.01626682
 O    8.0      58.91318798       58.91562462       79.20694828
 N    7.0      58.58791351       57.33170509       77.64797688
 H    1.0      58.42451572       57.11820126       76.67441845
 CA   6.0      58.47056866       56.14665985       78.52381229
 HA   1.0      58.98437977       56.43238068       79.44167614
 CB   6.0      57.01686859       55.83950520       78.88929844
 HB1  1.0      56.98557377       55.01428127       79.60072041
 HB2  1.0      56.44598007       55.55428505       78.00564289
 CG   6.0      56.28027439       57.01585770       79.58087444
 OD1  8.0      55.43839455       57.62072563       78.90640736
 ND2  7.0      56.42426968       57.28396416       80.87144852
 HD21 1.0      57.16131687       56.75755501       81.31839752
 HD22 1.0      55.76559067       57.82745838       81.41075134
 H000 1.0      59.03907365       59.28182049       77.21906235
 H000 1.0      58.91873801       55.23993742       78.14839575
 $end 
!comment atoms to be erased:
!polarization points to remove: