 $contrl units=angs local=boys runtyp=makefp 
       mult=1 icharg=0 coord=cart icut=11 $end
 $system timlim=99999 mwords=200 $end
 $scf soscf=.f. dirscf=.t. diis=.t. CONV=1.0d-06 $end
 $basis gbasis=n31 ngauss=6 ndfunc=1 $end
 $DAMP IFTTYP(1)=2,0 IFTFIX(1)=1,1 thrsh=500.0 $end
 $MAKEFP POL=.t. DISP=.f. CHTR=.f. EXREP=.f. $end
 $data
 n_1030_17829
 C1
 C    6.0      59.11062717       54.85171318       77.98765659
 O    8.0      58.87857437       54.49833393       76.83083057
 N    7.0      59.85400677       54.16366577       78.89374256
 H    1.0      60.08895397       54.66142178       79.74057674
 CA   6.0      60.38833141       52.79841900       78.67016315
 HA   1.0      60.43241024       52.63281822       77.59371281
 CB   6.0      61.74929142       52.78447628       79.31146145
 HB1  1.0      62.20882893       51.81111336       79.48317051
 HB2  1.0      61.61035061       53.16348076       80.32396317
 CG   6.0      62.66784191       53.71128559       78.54715824
 OD1  8.0      63.47778797       53.33073139       77.69921780
 ND2  7.0      62.62924671       54.98633862       78.92746449
 HD21 1.0      63.40556622       55.56941509       78.64917278
 HD22 1.0      62.13164806       55.15513897       79.79001522
 H000 1.0      58.66245782       55.75843561       78.36307313
 H000 1.0      59.68460327       52.11109171       79.11320582
 $end 
!comment atoms to be erased:
!polarization points to remove: