 $contrl units=angs local=boys runtyp=makefp 
       mult=1 icharg=0 coord=cart icut=11 $end
 $system timlim=99999 mwords=200 $end
 $scf soscf=.f. dirscf=.t. diis=.t. CONV=1.0d-06 $end
 $basis gbasis=n31 ngauss=6 ndfunc=1 $end
 $DAMP IFTTYP(1)=2,0 IFTFIX(1)=1,1 thrsh=500.0 $end
 $MAKEFP POL=.t. DISP=.f. CHTR=.f. EXREP=.f. $end
 $data
 n_186_2842
 C1
 C    6.0      71.36818409       66.61297321       60.56186676
 O    8.0      72.40185261       66.98585987       61.07103825
 C    6.0      70.82156658       69.71508503       60.67857742
 O    8.0      71.58921719       70.64200878       60.95303059
 C    6.0      70.32607555       69.62651730       63.70245457
 O    8.0      70.84076405       70.43467999       64.45229053
 N    7.0      70.60031414       68.29483509       63.74146938
 H    1.0      70.00414371       67.71992207       63.16340923
 CA   6.0      71.32358074       67.73164272       64.84113216
 HA   1.0      70.78182697       67.96062946       65.75882435
 CB   6.0      71.37642384       66.21342182       64.76050854
 HB1  1.0      72.09979534       65.97040176       63.98219585
 HB2  1.0      70.44909000       65.73419571       64.44664478
 CG   6.0      71.69763088       65.52562237       66.09888554
 HG1  1.0      72.72893429       65.71570873       66.39617443
 HG2  1.0      71.61916256       64.45076942       65.93566418
 CD   6.0      70.71178913       65.70913792       67.19390392
 OE1  8.0      69.62075710       66.21078491       66.89212322
 OE2  8.0      70.97498417       65.34531593       68.37619305
 H000 1.0      70.88116798       67.44511530       61.04590575
 H000 1.0      72.33604445       68.09937048       64.90140181
 $end 
!comment atoms to be erased:
!polarization points to remove: