 $contrl units=angs local=boys runtyp=makefp 
       mult=1 icharg=0 coord=cart icut=11 $end
 $system timlim=99999 mwords=200 $end
 $scf soscf=.f. dirscf=.t. diis=.t. CONV=1.0d-06 $end
 $basis gbasis=n31 ngauss=6 ndfunc=1 $end
 $DAMP IFTTYP(1)=2,0 IFTFIX(1)=1,1 thrsh=500.0 $end
 $MAKEFP POL=.t. DISP=.f. CHTR=.f. EXREP=.f. $end
 $data
 n_281_4268
 C1
 C    6.0      92.51117706       64.15116310       71.52186871
 O    8.0      91.90023422       63.22669029       72.01464176
 N    7.0      91.82294846       65.31401157       71.52915478
 H    1.0      92.26512909       66.14175320       71.15578175
 CA   6.0      90.36989212       65.45259953       71.90587521
 HA   1.0      90.29647827       65.02984047       72.90787220
 CB   6.0      89.97438431       66.95927143       72.03490734
 HB1  1.0      88.90546799       67.05024719       72.22787380
 HB2  1.0      90.26855469       67.37905979       71.07295513
 CG   6.0      90.75189590       67.63016224       73.13893795
 OD1  8.0      91.70665741       68.35273266       72.88311481
 ND2  7.0      90.52097321       67.30414867       74.43847179
 HD21 1.0      90.10808945       66.39951706       74.61524487
 HD22 1.0      91.13065720       67.76340961       75.09989262
 H000 1.0      93.49867127       64.03203923       71.10401277
 H000 1.0      89.69397487       64.95216260       71.23012551
 $end 
!comment atoms to be erased:
!polarization points to remove: