 $contrl units=angs local=boys runtyp=makefp 
       mult=1 icharg=0 coord=cart icut=11 $end
 $system timlim=99999 mwords=200 $end
 $scf soscf=.f. dirscf=.t. diis=.t. CONV=1.0d-06 $end
 $basis gbasis=n31 ngauss=6 ndfunc=1 $end
 $DAMP IFTTYP(1)=2,0 IFTFIX(1)=1,1 thrsh=500.0 $end
 $MAKEFP POL=.t. DISP=.f. CHTR=.f. EXREP=.f. $end
 $data
 n_29_421
 C1
 C    6.0      75.02197742       42.29854584       68.48663807
 O    8.0      74.79638577       42.34127998       67.27735043
 N    7.0      74.36067104       41.48475170       69.25832272
 H    1.0      74.66880322       41.56410217       70.21688938
 CA   6.0      73.24445248       40.66835403       68.88533115
 HA   1.0      73.34810734       40.45604229       67.82124996
 CB   6.0      73.41834545       39.32528973       69.67635632
 HB1  1.0      73.38189602       39.58253384       70.73493481
 HB2  1.0      74.37042713       38.84009361       69.46137905
 CG   6.0      72.42187023       38.24849129       69.27255154
 OD1  8.0      71.54613018       37.88696766       70.06141186
 ND2  7.0      72.46426105       37.83272743       68.02032948
 HD21 1.0      71.73821926       37.19088554       67.73573399
 HD22 1.0      73.19121838       38.09928894       67.37181187
 H000 1.0      75.80142314       42.85179957       68.98695155
 H000 1.0      72.25865066       41.09756254       68.97429028
 $end 
!comment atoms to be erased:
!polarization points to remove: