 $contrl units=angs local=boys runtyp=makefp 
       mult=1 icharg=0 coord=cart icut=11 $end
 $system timlim=99999 mwords=200 $end
 $scf soscf=.f. dirscf=.t. diis=.t. CONV=1.0d-06 $end
 $basis gbasis=n31 ngauss=6 ndfunc=1 $end
 $DAMP IFTTYP(1)=2,0 IFTFIX(1)=1,1 thrsh=500.0 $end
 $MAKEFP POL=.t. DISP=.f. CHTR=.f. EXREP=.f. $end
 $data
 n_297_4523
 C1
 C    6.0      66.85372829       51.55646324       71.46924496
 O    8.0      66.65976048       51.81613445       72.62676716
 N    7.0      67.22789288       50.33015251       71.08853817
 H    1.0      67.32291698       50.11948586       70.10532856
 CA   6.0      67.44510174       49.16807652       71.99026585
 HA   1.0      66.56791210       49.01436329       72.61877537
 CB   6.0      67.56894588       47.88797379       71.12761021
 HB1  1.0      68.32439899       48.04802418       70.35834789
 HB2  1.0      66.70082569       47.64083862       70.51654339
 CG   6.0      68.00618649       46.70005798       71.99075222
 OD1  8.0      67.19455242       46.16962433       72.77600765
 ND2  7.0      69.27222729       46.37620449       71.97397709
 HD21 1.0      69.94395733       46.87900543       71.41178608
 HD22 1.0      69.51727390       45.62398911       72.60183811
 H000 1.0      66.61500071       52.25840777       70.68552185
 H000 1.0      68.23420774       49.28556722       72.71652101
 $end 
!comment atoms to be erased:
!polarization points to remove: