 $contrl units=angs local=boys runtyp=makefp 
       mult=1 icharg=0 coord=cart icut=11 $end
 $system timlim=99999 mwords=200 $end
 $scf soscf=.f. dirscf=.t. diis=.t. CONV=1.0d-06 $end
 $basis gbasis=n31 ngauss=6 ndfunc=1 $end
 $DAMP IFTTYP(1)=2,0 IFTFIX(1)=1,1 thrsh=500.0 $end
 $MAKEFP POL=.t. DISP=.f. CHTR=.f. EXREP=.f. $end
 $data
 n_298_4537
 C1
 C    6.0      68.58570576       49.33790207       73.04002285
 O    8.0      69.65320110       49.85950470       72.69230366
 N    7.0      68.37445736       48.95534039       74.27723408
 H    1.0      67.54274845       48.44200134       74.53187466
 CA   6.0      69.36980724       49.02507782       75.39884090
 HA   1.0      70.06400585       49.85221863       75.25042057
 CB   6.0      68.63209248       49.32484627       76.75087452
 HB1  1.0      67.95186520       48.55215549       77.10910320
 HB2  1.0      68.01670551       50.21346092       76.61027431
 CG   6.0      69.55055714       49.65032578       77.91338444
 OD1  8.0      70.74149609       49.96320724       77.77712345
 ND2  7.0      69.04850483       49.30209637       79.09183025
 HD21 1.0      69.56749439       49.55940247       79.91919994
 HD22 1.0      68.04051876       49.24314976       79.06788349
 H000 1.0      67.79659976       49.22041137       72.31376769
 H000 1.0      69.94799619       48.11663660       75.46495432
 $end 
!comment atoms to be erased:
!polarization points to remove: