 $contrl units=angs local=boys runtyp=makefp 
       mult=1 icharg=0 coord=cart icut=11 $end
 $system timlim=99999 mwords=200 $end
 $scf soscf=.f. dirscf=.t. diis=.t. CONV=1.0d-06 $end
 $basis gbasis=n31 ngauss=6 ndfunc=1 $end
 $DAMP IFTTYP(1)=2,0 IFTFIX(1)=1,1 thrsh=500.0 $end
 $MAKEFP POL=.t. DISP=.f. CHTR=.f. EXREP=.f. $end
 $data
 n_300_4571
 C1
 C    6.0      73.30233097       46.76389217       77.40315914
 O    8.0      73.68835926       47.86283016       77.82925129
 N    7.0      73.76993656       45.59032917       77.87891865
 H    1.0      73.70160580       44.82650280       77.22165585
 CA   6.0      74.87760067       45.49323082       78.87878895
 HA   1.0      74.83520985       46.34322643       79.55982685
 CB   6.0      74.68353748       44.13971424       79.60860729
 HB1  1.0      74.54946041       43.33024979       78.89105320
 HB2  1.0      73.83617878       44.19750690       80.29178619
 CG   6.0      75.92397213       43.80610943       80.51244736
 OD1  8.0      76.60490513       44.69002724       81.08654022
 ND2  7.0      76.24649525       42.56172657       80.51494598
 HD21 1.0      77.00830936       42.25455284       81.10263824
 HD22 1.0      75.53341389       41.96173191       80.12556076
 H000 1.0      72.68877592       46.73299178       76.51629147
 H000 1.0      75.81365249       45.51462347       78.34279618
 $end 
!comment atoms to be erased:
!polarization points to remove: