 $contrl units=angs local=boys runtyp=makefp 
       mult=1 icharg=0 coord=cart icut=11 $end
 $system timlim=99999 mwords=200 $end
 $scf soscf=.f. dirscf=.t. diis=.t. CONV=1.0d-06 $end
 $basis gbasis=n31 ngauss=6 ndfunc=1 $end
 $DAMP IFTTYP(1)=2,0 IFTFIX(1)=1,1 thrsh=500.0 $end
 $MAKEFP POL=.t. DISP=.f. CHTR=.f. EXREP=.f. $end
 $data
 n_664_11183
 C1
 C    6.0      69.41005230       57.92009354       80.57159424
 O    8.0      68.27927113       58.41209412       80.69076538
 N    7.0      69.68035221       56.72680378       80.92960358
 H    1.0      70.62084675       56.38165951       80.80133438
 CA   6.0      68.69734287       55.88938236       81.62818909
 HA   1.0      67.67724514       56.03322029       81.27208710
 CB   6.0      69.04660702       54.49584484       81.25928879
 HB1  1.0      69.90760326       54.18777466       81.85249329
 HB2  1.0      69.28123951       54.43323135       80.19668579
 CG   6.0      67.97937870       53.45182419       81.59955978
 OD1  8.0      66.84649944       53.78854752       82.02733994
 ND2  7.0      68.32666874       52.16673374       81.41000748
 HD21 1.0      67.73095608       51.45814896       81.81392670
 HD22 1.0      69.26227093       51.95646763       81.09294891
 H000 1.0      70.21775482       58.54790568       80.22894653
 H000 1.0      68.71770663       56.03505101       82.69697572
 $end 
!comment atoms to be erased:
!polarization points to remove: