 $contrl units=angs local=boys runtyp=makefp 
       mult=1 icharg=0 coord=cart icut=11 $end
 $system timlim=99999 mwords=200 $end
 $scf soscf=.f. dirscf=.t. diis=.t. CONV=1.0d-06 $end
 $basis gbasis=n31 ngauss=6 ndfunc=1 $end
 $DAMP IFTTYP(1)=2,0 IFTFIX(1)=1,1 thrsh=500.0 $end
 $MAKEFP POL=.t. DISP=.f. CHTR=.f. EXREP=.f. $end
 $data
 n_663_11169
 C1
 C    6.0      70.84864140       58.77273560       77.62367725
 O    8.0      71.44023418       57.65587807       77.65564442
 N    7.0      70.35355091       59.39954281       78.72176647
 H    1.0      69.93196011       60.31405926       78.64420414
 CA   6.0      70.61405659       58.85594368       80.06082535
 HA   1.0      71.55952930       58.31937790       79.98156071
 CB   6.0      70.84306240       60.06409168       81.00893021
 HB1  1.0      69.95385647       60.68760395       80.91594696
 HB2  1.0      71.63388729       60.72164059       80.64792633
 CG   6.0      71.16200924       59.76507187       82.48023987
 OD1  8.0      70.41647434       60.15964508       83.36511612
 ND2  7.0      72.00416088       58.81288052       82.87591934
 HD21 1.0      72.59162426       58.36699486       82.18585968
 HD22 1.0      71.91493511       58.60333920       83.85992050
 H000 1.0      70.56479677       59.24207889       76.69465195
 H000 1.0      69.80635407       58.22813154       80.40347306
 $end 
!comment atoms to be erased:
!polarization points to remove: