 $contrl units=angs local=boys runtyp=makefp 
       mult=1 icharg=0 coord=cart icut=11 $end
 $system timlim=99999 mwords=200 $end
 $scf soscf=.f. dirscf=.t. diis=.t. CONV=1.0d-06 $end
 $basis gbasis=n31 ngauss=6 ndfunc=1 $end
 $DAMP IFTTYP(1)=2,0 IFTFIX(1)=1,1 thrsh=500.0 $end
 $MAKEFP POL=.t. DISP=.f. CHTR=.f. EXREP=.f. $end
 $data
 n_72_1068
 C1
 C    6.0      76.73446178       46.22179508       44.72780704
 O    8.0      76.10636234       46.59237862       43.73162746
 N    7.0      77.76206493       46.81807041       45.29521465
 H    1.0      78.05310726       46.47888660       46.20094299
 CA   6.0      78.26220989       48.15432072       44.85845089
 HA   1.0      78.20806026       48.30523491       43.78030777
 CB   6.0      77.22243786       49.22372341       45.36030293
 HB1  1.0      76.23810291       49.05839920       44.92229462
 HB2  1.0      77.57551670       50.23454189       45.15614986
 CG   6.0      76.97440624       49.08854485       46.88716888
 OD1  8.0      77.90349483       49.05780792       47.68472195
 ND2  7.0      75.71828365       48.85832310       47.25850582
 HD21 1.0      75.53241253       48.75401020       48.24575901
 HD22 1.0      75.03869534       48.60547066       46.55542374
 H000 1.0      76.47346883       45.26804905       45.15930454
 H000 1.0      79.27367559       48.33893545       45.18524353
 $end 
!comment atoms to be erased:
!polarization points to remove: