 $contrl units=angs local=boys runtyp=makefp 
       mult=1 icharg=0 coord=cart icut=11 $end
 $system timlim=99999 mwords=200 $end
 $scf soscf=.f. dirscf=.t. diis=.t. CONV=1.0d-06 $end
 $basis gbasis=n31 ngauss=6 ndfunc=1 $end
 $DAMP IFTTYP(1)=2,0 IFTFIX(1)=1,1 thrsh=500.0 $end
 $MAKEFP POL=.t. DISP=.f. CHTR=.f. EXREP=.f. $end
 $data
 n_860_15234
 C1
 C    6.0      64.28924084       45.48077583       45.58905602
 O    8.0      63.20341587       44.89951611       45.30782700
 N    7.0      64.27892208       46.72495842       46.09627724
 H    1.0      65.14650822       47.18717098       46.32815361
 CA   6.0      63.08026791       47.46769428       46.46943092
 HA   1.0      62.36030102       47.49392986       45.65146446
 CB   6.0      62.49228001       46.88125134       47.78615952
 HB1  1.0      63.29334736       46.88024998       48.52535248
 HB2  1.0      62.16316700       45.84266186       47.75279522
 CG   6.0      61.33274555       47.60721207       48.36126328
 OD1  8.0      60.98667622       48.68775845       47.94010162
 ND2  7.0      60.72680950       47.05782413       49.42645073
 HD21 1.0      60.92470646       46.11432552       49.72770214
 HD22 1.0      60.15593052       47.69391060       49.96459007
 H000 1.0      65.20886266       44.98316943       45.32330712
 H000 1.0      63.35327520       48.50160329       46.61239273
 $end 
!comment atoms to be erased:
!polarization points to remove: