 $contrl units=angs local=boys runtyp=makefp 
       mult=1 icharg=1 coord=cart icut=11 $end
 $system timlim=99999 mwords=200 $end
 $scf soscf=.f. dirscf=.t. diis=.t. CONV=1.0d-06 $end
 $basis gbasis=n31 ngauss=6 ndfunc=1 $end
 $DAMP IFTTYP(1)=2,0 IFTFIX(1)=1,1 thrsh=500.0 $end
 $MAKEFP POL=.t. DISP=.f. CHTR=.f. EXREP=.f. $end
 $data
 nval_1_1
 C1
 N    7.0      68.99400234       42.03333378       78.78934383
 H1   1.0      68.09088230       42.39934444       79.05487537
 H2   1.0      69.58366871       41.95279598       79.60537434
 H3   1.0      68.70007992       41.09043598       78.57802868
 CA   6.0      69.59453106       42.80265808       77.59448528
 HA   1.0      68.78991604       42.87618637       76.86284542
 CB   6.0      70.03688335       44.25958633       77.78770924
 HB   1.0      70.47120571       44.62962627       76.85898304
 CG1  6.0      68.89198780       45.20944595       78.09628010
 HG11 1.0      69.19033527       46.25774860       78.10853481
 HG12 1.0      68.29968929       45.01700401       78.99084568
 HG13 1.0      68.16480160       45.09198666       77.29283810
 CG2  6.0      70.98284245       44.33338165       78.91316891
 HG21 1.0      71.86574459       43.71088982       78.76803875
 HG22 1.0      70.42902470       44.08859253       79.81953144
 HG23 1.0      71.29539013       45.37025452       79.03687000
 H000    1.0      70.40711814       42.25673112       77.14104853
 $end 
!comment atoms to be erased:
!polarization points to remove: