 $contrl units=angs local=boys runtyp=makefp 
       mult=1 icharg=1 coord=cart icut=11 $end
 $system timlim=99999 mwords=200 $end
 $scf soscf=.f. dirscf=.t. diis=.t. CONV=1.0d-06 $end
 $basis gbasis=n31 ngauss=6 ndfunc=1 $end
 $DAMP IFTTYP(1)=2,0 IFTFIX(1)=1,1 thrsh=500.0 $end
 $MAKEFP POL=.t. DISP=.f. CHTR=.f. EXREP=.f. $end
 $data
 nval_367_6647
 C1
 N    7.0      71.83608532       51.58917427       86.78369522
 H1   1.0      72.82042027       51.58562183       87.00992584
 H2   1.0      71.59333706       50.80256939       86.19852066
 H3   1.0      71.43667698       51.57770157       87.71129608
 CA   6.0      71.51414394       52.86870003       86.10946655
 HA   1.0      72.14090824       53.04431438       85.23515701
 CB   6.0      69.99636173       52.88606167       85.77230453
 HB   1.0      69.75712299       53.80824566       85.24274826
 CG1  6.0      69.88813877       51.68407917       84.75076675
 HG11 1.0      69.89243984       50.67459583       85.16189575
 HG12 1.0      70.73844433       51.76496506       84.07360077
 HG13 1.0      68.93472195       51.70337200       84.22285080
 CG2  6.0      68.89797688       52.68733978       86.75088882
 HG21 1.0      69.07115459       53.33735943       87.60854721
 HG22 1.0      68.98148060       51.66498184       87.11956024
 HG23 1.0      67.92112827       52.84037590       86.29217148
 H000    1.0      71.67814209       53.71013805       86.76446698
 $end 
!comment atoms to be erased:
!polarization points to remove: