 $contrl units=angs local=boys runtyp=makefp 
       mult=1 icharg=0 coord=cart icut=11 $end
 $system timlim=99999 mwords=200 $end
 $scf soscf=.f. dirscf=.t. diis=.t. CONV=1.0d-06 $end
 $basis gbasis=n31 ngauss=6 ndfunc=1 $end
 $DAMP IFTTYP(1)=2,0 IFTFIX(1)=1,1 thrsh=500.0 $end
 $MAKEFP POL=.t. DISP=.f. CHTR=.f. EXREP=.f. $end
 $data
 p_1015_17574
 C1
 C    6.0      55.21003246       48.04757595       54.16969299
 O    8.0      54.10446167       48.59388828       53.83724689
 C    6.0      55.50700665       50.50227642       56.20892525
 O    8.0      56.71604156       50.80943108       56.06785774
 C    6.0      55.68726540       53.53835583       56.93204880
 O    8.0      55.71221352       53.17605972       58.09134483
 N    7.0      56.47363663       54.55355644       56.51272297
 H    1.0      56.43138409       54.88658428       55.56014061
 CA   6.0      57.59689808       55.07822990       57.30091572
 HA   1.0      57.99197197       54.29894924       57.95263290
 CB   6.0      58.76008034       55.50749779       56.45703793
 HB1  1.0      59.56094265       55.97552299       57.02945709
 HB2  1.0      58.30987453       56.21695995       55.76271057
 CG   6.0      59.32548046       54.38518047       55.52351952
 HG   1.0      58.56887341       54.08670425       54.79787827
 CD1  6.0      60.52931309       54.93692398       54.79185581
 HD11 1.0      61.02293491       54.19295788       54.16659832
 HD12 1.0      61.21209621       55.28537273       55.56677341
 HD13 1.0      60.32545567       55.77507496       54.12549019
 CD2  6.0      59.84456539       53.12449455       56.20648861
 HD21 1.0      60.42892933       52.46013641       55.56989670
 HD22 1.0      58.95604610       52.59326935       56.54768944
 HD23 1.0      60.52597523       53.35931301       57.02419281
 H000 1.0      55.09509428       49.04892184       54.55444554
 H000 1.0      57.41856864       55.94975277       57.91131346
 $end 
!comment atoms to be erased:
!polarization points to remove: