 $contrl units=angs local=boys runtyp=makefp 
       mult=1 icharg=0 coord=cart icut=11 $end
 $system timlim=99999 mwords=200 $end
 $scf soscf=.f. dirscf=.t. diis=.t. CONV=1.0d-06 $end
 $basis gbasis=n31 ngauss=6 ndfunc=1 $end
 $DAMP IFTTYP(1)=2,0 IFTFIX(1)=1,1 thrsh=500.0 $end
 $MAKEFP POL=.t. DISP=.f. CHTR=.f. EXREP=.f. $end
 $data
 p_1018_17624
 C1
 C    6.0      57.34235764       56.32220745       58.17217350
 O    8.0      57.70394325       56.30617619       59.35841560
 C    6.0      55.38822651       58.03752422       59.75962639
 O    8.0      55.94492912       58.45448971       60.76524734
 C    6.0      54.65667725       56.18666649       62.15944290
 O    8.0      54.54581261       56.42751694       63.37110996
 N    7.0      55.60324192       55.42712212       61.61535740
 H    1.0      55.81372738       55.28199196       60.63825607
 CA   6.0      56.55383587       54.74890232       62.48478413
 HA   1.0      56.09081268       54.21205044       63.31273556
 CB   6.0      57.18596935       53.56534481       61.65431976
 HB1  1.0      57.63152122       54.01322365       60.76606750
 HB2  1.0      56.32001400       52.96304703       61.37961388
 CG   6.0      58.29091072       52.68154621       62.22951412
 HG   1.0      59.17953014       53.29223633       62.38923550
 CD1  6.0      57.89479256       51.95585728       63.55268955
 HD11 1.0      58.60190392       51.27991676       64.03352261
 HD12 1.0      56.92022324       51.48291588       63.43166351
 HD13 1.0      57.79980183       52.64578819       64.39117908
 CD2  6.0      58.68712425       51.54797077       61.19706154
 HD21 1.0      57.93564796       50.75947762       61.23782158
 HD22 1.0      59.57840443       51.02598190       61.54528141
 HD23 1.0      58.71835709       52.09537029       60.25500298
 H000 1.0      56.51354736       56.43013349       58.85434972
 H000 1.0      57.28616401       55.41582280       62.91239548
 $end 
!comment atoms to be erased:
!polarization points to remove: