 $contrl units=angs local=boys runtyp=makefp 
       mult=1 icharg=0 coord=cart icut=11 $end
 $system timlim=99999 mwords=200 $end
 $scf soscf=.f. dirscf=.t. diis=.t. CONV=1.0d-06 $end
 $basis gbasis=n31 ngauss=6 ndfunc=1 $end
 $DAMP IFTTYP(1)=2,0 IFTFIX(1)=1,1 thrsh=500.0 $end
 $MAKEFP POL=.t. DISP=.f. CHTR=.f. EXREP=.f. $end
 $data
 p_180_2774
 C1
 C    6.0      66.08891964       60.64048767       54.28524494
 O    8.0      65.66506863       61.78832531       54.49457169
 N    7.0      66.69655323       59.92360115       55.28313160
 CD   6.0      67.13052273       58.47848415       55.27502060
 HD1  1.0      67.86190510       58.32426548       54.48168278
 HD2  1.0      66.27439022       57.80524254       55.31852245
 CG   6.0      67.82884121       58.23338509       56.57374859
 HG1  1.0      68.85165691       58.60877991       56.60586834
 HG2  1.0      67.72363186       57.21888065       56.95820808
 CB   6.0      67.08765507       59.23667908       57.49505043
 HB1  1.0      66.09618664       58.94464970       57.84115791
 HB2  1.0      67.62173176       59.52867031       58.39926720
 CA   6.0      66.96821690       60.44814110       56.61928177
 HA   1.0      66.09790325       61.03560448       56.91175938
 H000 1.0      65.94131953       60.21762299       53.30374681
 H000 1.0      67.80990102       61.12155497       56.66423184
 $end 
!comment atoms to be erased:
!polarization points to remove: