 $contrl units=angs local=boys runtyp=makefp 
       mult=1 icharg=0 coord=cart icut=11 $end
 $system timlim=99999 mwords=200 $end
 $scf soscf=.f. dirscf=.t. diis=.t. CONV=1.0d-06 $end
 $basis gbasis=n31 ngauss=6 ndfunc=1 $end
 $DAMP IFTTYP(1)=2,0 IFTFIX(1)=1,1 thrsh=500.0 $end
 $MAKEFP POL=.t. DISP=.f. CHTR=.f. EXREP=.f. $end
 $data
 p_286_4351
 C1
 C    6.0      79.56055164       63.49826336       64.91776943
 O    8.0      78.33591938       63.19942474       65.09217739
 N    7.0      80.47695160       62.48887539       64.79217052
 CD   6.0      81.89786911       62.75075912       64.50510502
 HD1  1.0      82.39641190       63.36361408       65.25607586
 HD2  1.0      81.91080093       63.11529160       63.47794056
 CG   6.0      82.50818253       61.33049011       64.74014759
 HG1  1.0      82.74442673       61.17739677       65.79317570
 HG2  1.0      83.42443466       61.20424747       64.16341305
 CB   6.0      81.40371323       60.35263538       64.41470623
 HB1  1.0      81.50558472       60.16212940       63.34632874
 HB2  1.0      81.34239197       59.39675331       64.93492603
 CA   6.0      80.09933472       61.11746311       64.65048313
 HA   1.0      79.45535183       61.14356995       63.77144337
 H000 1.0      79.77419669       64.55406786       64.85800697
 H000 1.0      79.57378481       60.75390291       65.51971277
 $end 
!comment atoms to be erased:
!polarization points to remove: