 $contrl units=angs local=boys runtyp=makefp 
       mult=1 icharg=0 coord=cart icut=11 $end
 $system timlim=99999 mwords=200 $end
 $scf soscf=.f. dirscf=.t. diis=.t. CONV=1.0d-06 $end
 $basis gbasis=n31 ngauss=6 ndfunc=1 $end
 $DAMP IFTTYP(1)=2,0 IFTFIX(1)=1,1 thrsh=500.0 $end
 $MAKEFP POL=.t. DISP=.f. CHTR=.f. EXREP=.f. $end
 $data
 p_283_4299
 C1
 C    6.0      86.44254684       64.56670284       69.60764408
 O    8.0      85.91735840       65.61508179       70.03629208
 N    7.0      86.19651794       64.17149067       68.37351322
 CD   6.0      86.80137634       62.99021244       67.68006802
 HD1  1.0      86.59603119       62.09420204       68.26581478
 HD2  1.0      87.87500381       63.01752090       67.49387264
 CG   6.0      86.08173370       62.90845871       66.29821301
 HG1  1.0      85.24728775       62.20759869       66.32262707
 HG2  1.0      86.73431396       62.56641865       65.49493313
 CB   6.0      85.59936523       64.37171936       66.05964184
 HB1  1.0      86.41479492       64.94774342       65.62217236
 HB2  1.0      84.79724884       64.49914932       65.33268452
 CA   6.0      85.36064148       64.92617130       67.45255947
 HA   1.0      85.64554214       65.97686768       67.50710011
 H000 1.0      87.01227925       63.94998883       70.28514516
 H000 1.0      84.32011625       64.87331410       67.73265278
 $end 
!comment atoms to be erased:
!polarization points to remove: