 $contrl units=angs local=boys runtyp=makefp 
       mult=1 icharg=0 coord=cart icut=11 $end
 $system timlim=99999 mwords=200 $end
 $scf soscf=.f. dirscf=.t. diis=.t. CONV=1.0d-06 $end
 $basis gbasis=n31 ngauss=6 ndfunc=1 $end
 $DAMP IFTTYP(1)=2,0 IFTFIX(1)=1,1 thrsh=500.0 $end
 $MAKEFP POL=.t. DISP=.f. CHTR=.f. EXREP=.f. $end
 $data
 p_31_445
 C1
 C    6.0      70.47108173       44.00242805       67.11370945
 O    8.0      71.26853466       44.84171391       66.84493542
 N    7.0      69.42456722       43.87107372       66.25998020
 CD   6.0      68.30630779       42.99041271       66.40088558
 HD1  1.0      67.88364887       43.29821587       67.35729694
 HD2  1.0      68.55427265       41.93529129       66.51634693
 CG   6.0      67.46460438       43.12880039       65.11190891
 HG1  1.0      66.66572094       43.86997223       65.13530254
 HG2  1.0      67.03354359       42.16439247       64.84322071
 CB   6.0      68.40455532       43.53492737       64.01512623
 HB1  1.0      68.82224560       42.64778137       63.53909969
 HB2  1.0      67.90263653       44.18840885       63.30160141
 CA   6.0      69.51582432       44.25218105       64.82146740
 HA   1.0      70.40697575       43.77408981       64.41480160
 H000 1.0      70.53354113       43.46953839       68.04969360
 H000 1.0      69.57898257       45.31077573       64.62315642
 $end 
!comment atoms to be erased:
!polarization points to remove: