 $contrl units=angs local=boys runtyp=makefp 
       mult=1 icharg=0 coord=cart icut=11 $end
 $system timlim=99999 mwords=200 $end
 $scf soscf=.f. dirscf=.t. diis=.t. CONV=1.0d-06 $end
 $basis gbasis=n31 ngauss=6 ndfunc=1 $end
 $DAMP IFTTYP(1)=2,0 IFTFIX(1)=1,1 thrsh=500.0 $end
 $MAKEFP POL=.t. DISP=.f. CHTR=.f. EXREP=.f. $end
 $data
 p_32_459
 C1
 C    6.0      69.60955143       45.82314014       64.52717304
 O    8.0      69.05552387       46.66445732       65.28089046
 N    7.0      70.44546604       46.29802227       63.57072353
 CD   6.0      71.39648914       45.48851490       62.82840252
 HD1  1.0      70.90578556       44.61547375       62.39815712
 HD2  1.0      72.21315861       45.21018028       63.49449635
 CG   6.0      71.89513683       46.48068428       61.69001579
 HG1  1.0      71.21013165       46.44719124       60.84281445
 HG2  1.0      72.87614346       46.08475685       61.42738819
 CB   6.0      71.85288906       47.83453941       62.43703365
 HB1  1.0      72.73558140       47.96266079       63.06355476
 HB2  1.0      71.77203655       48.63472939       61.70133114
 CA   6.0      70.60891628       47.68945694       63.25969696
 HA   1.0      70.59508801       48.33292484       64.13938999
 H000 1.0      69.54639318       44.76454546       64.72548402
 H000 1.0      69.74187427       48.01155808       62.70433411
 $end 
!comment atoms to be erased:
!polarization points to remove: