 $contrl units=angs local=boys runtyp=makefp 
       mult=1 icharg=0 coord=cart icut=11 $end
 $system timlim=99999 mwords=200 $end
 $scf soscf=.f. dirscf=.t. diis=.t. CONV=1.0d-06 $end
 $basis gbasis=n31 ngauss=6 ndfunc=1 $end
 $DAMP IFTTYP(1)=2,0 IFTFIX(1)=1,1 thrsh=500.0 $end
 $MAKEFP POL=.t. DISP=.f. CHTR=.f. EXREP=.f. $end
 $data
 p_35_494
 C1
 C    6.0      67.05540180       48.78570557       57.75537968
 O    8.0      66.69284344       47.65032291       58.13551903
 N    7.0      66.40362263       49.47694302       56.82728291
 CD   6.0      66.46874905       50.89943886       56.44852638
 HD1  1.0      67.21489429       51.04259968       55.66693783
 HD2  1.0      66.58815861       51.46803379       57.37077236
 CG   6.0      65.14214993       51.20573997       55.83121300
 HG1  1.0      65.15580654       52.09858894       55.20612240
 HG2  1.0      64.35087681       51.47379398       56.53130054
 CB   6.0      64.70860958       49.97070312       55.08503914
 HB1  1.0      63.62350941       49.87118721       55.11260033
 HB2  1.0      65.21753788       49.88366604       54.12508488
 CA   6.0      65.32601833       48.87819767       56.05563164
 HA   1.0      64.56332684       48.73023510       56.82015896
 H000 1.0      67.97281454       49.21977451       58.12127163
 H000 1.0      65.49063307       47.93627214       55.55601460
 $end 
!comment atoms to be erased:
!polarization points to remove: