 $contrl units=angs local=boys runtyp=makefp 
       mult=1 icharg=0 coord=cart icut=11 $end
 $system timlim=99999 mwords=200 $end
 $scf soscf=.f. dirscf=.t. diis=.t. CONV=1.0d-06 $end
 $basis gbasis=n31 ngauss=6 ndfunc=1 $end
 $DAMP IFTTYP(1)=2,0 IFTFIX(1)=1,1 thrsh=500.0 $end
 $MAKEFP POL=.t. DISP=.f. CHTR=.f. EXREP=.f. $end
 $data
 p_38_546
 C1
 C    6.0      69.35822010       41.85240746       54.78063583
 O    8.0      68.34239483       41.51440620       54.22950268
 N    7.0      70.40854931       41.03493214       54.65564251
 CD   6.0      70.49717426       39.76644039       54.00418758
 HD1  1.0      70.24496555       39.96773243       52.96305180
 HD2  1.0      69.76576328       39.16028500       54.53872204
 CG   6.0      71.90102100       39.17391777       54.09484386
 HG1  1.0      72.52475262       39.57956791       53.29828739
 HG2  1.0      71.87390804       38.09389591       54.23945427
 CB   6.0      72.27976322       39.78622437       55.43053627
 HB1  1.0      71.72375202       39.26123142       56.20727539
 HB2  1.0      73.35593700       39.89694118       55.56358814
 CA   6.0      71.66395664       41.22446060       55.44832230
 HA   1.0      71.59975529       41.58585072       56.47466660
 H000 1.0      69.42679283       42.80424648       55.28386457
 H000 1.0      72.30775590       41.91042836       54.92020333
 $end 
!comment atoms to be erased:
!polarization points to remove: