 $contrl units=angs local=boys runtyp=makefp 
       mult=1 icharg=0 coord=cart icut=11 $end
 $system timlim=99999 mwords=200 $end
 $scf soscf=.f. dirscf=.t. diis=.t. CONV=1.0d-06 $end
 $basis gbasis=n31 ngauss=6 ndfunc=1 $end
 $DAMP IFTTYP(1)=2,0 IFTFIX(1)=1,1 thrsh=500.0 $end
 $MAKEFP POL=.t. DISP=.f. CHTR=.f. EXREP=.f. $end
 $data
 p_401_7129
 C1
 C    6.0      77.64522076       67.65134811       77.76435375
 O    8.0      78.26750278       67.83959389       76.67164326
 C    6.0      80.19222260       69.12475109       78.77755642
 O    8.0      80.53125381       68.21066380       79.54926968
 C    6.0      83.33620071       69.80395794       79.15752888
 O    8.0      84.23028946       69.14335728       79.62452412
 C    6.0      83.47730637       72.02413082       81.94000244
 O    8.0      82.69882202       72.86041737       82.38117218
 C    6.0      84.81454849       70.22552013       84.95498657
 O    8.0      85.77186584       69.80252743       84.31465149
 C    6.0      83.32380295       72.09730625       87.08177567
 O    8.0      84.28071976       72.91578770       87.00832367
 C    6.0      80.56659698       73.96947384       88.41604233
 O    8.0      79.81589794       73.06702137       88.75423431
 C    6.0      79.01913166       76.99135303       89.50611115
 O    8.0      79.51866627       77.77034283       88.67931366
 C    6.0      76.24007702       78.84983540       90.94482422
 O    8.0      75.62005520       78.02912235       91.58201218
 C    6.0      74.42500591       81.80042267       91.31080627
 O    8.0      74.99667645       82.53841400       90.47872543
 C    6.0      71.12451077       83.42678070       91.98787689
 O    8.0      70.67679882       82.77114868       92.97281265
 C    6.0      69.44388866       86.71731949       92.02146530
 O    8.0      69.96775150       87.20123291       91.00503922
 C    6.0      66.23023510       88.66451263       92.37228394
 O    8.0      65.60041904       87.93649673       93.12587738
 C    6.0      64.19987202       91.66250229       92.22648621
 O    8.0      64.76162434       92.17369080       91.26136780
 C    6.0      61.27607822       93.94798279       93.05755615
 O    8.0      60.72958469       93.39792252       93.98765564
 C    6.0      59.45195675       96.98421478       93.00689697
 O    8.0      59.52771664       97.47381210       91.88076019
 C    6.0      57.21091747       99.45058823       93.42302322
 O    8.0      57.63904572       99.98922348       94.41371918
 C    6.0      55.46982765      102.11271286       91.78140640
 O    8.0      55.24119377      103.20480347       92.27296829
 C    6.0      52.44719982      100.75260162       90.14343262
 O    8.0      52.73018837      100.54063797       88.97169113
 C    6.0      49.84263897       99.35958862       88.92494202
 O    8.0      49.66747284       98.42460632       88.14628601
 C    6.0      49.46782589      101.15585327       86.25267029
 O    8.0      49.06510830      100.60808182       85.22918701
 C    6.0      52.43428230      100.56646347       85.11377335
 O    8.0      53.10662746      100.38017273       84.10758972
 C    6.0      54.51366425       98.45539093       86.35391235
 O    8.0      55.34625530       97.65153885       85.91085434
 C    6.0      56.98181629       99.48196411       88.19786072
 O    8.0      56.47321224       99.46409225       89.33519363
 C    6.0      60.46505451       98.34762573       88.41396332
 O    8.0      60.83827496       98.79852295       87.33205795
 C    6.0      63.26903820       96.85737610       89.70802307
 O    8.0      62.89873600       96.24414444       90.75164795
 C    6.0      66.07560635       94.80514526       88.84328842
 O    8.0      66.82200909       95.67495346       88.42124939
 C    6.0      68.40045452       92.01007843       89.55513000
 O    8.0      67.59158611       91.19131088       90.04304886
 C    6.0      71.46198750       89.81826782       88.96451950
 O    8.0      72.20242977       90.67071915       88.53294373
 C    6.0      73.27828884       86.63211823       88.82644653
 O    8.0      72.59286404       85.82408905       89.49188232
 C    6.0      76.06967449       84.84313965       87.72676468
 O    8.0      76.83622837       85.60258865       87.09838867
 C    6.0      78.47287655       82.53105164       89.36050415
 O    8.0      78.05948734       81.81131363       90.25012970
 C    6.0      81.56980515       80.66818237       88.62596512
 O    8.0      82.32868195       81.65220261       88.62697601
 C    6.0      83.20013046       77.88556576       87.21998215
 O    8.0      82.56523132       76.89429760       87.56225586
 C    6.0      85.14089584       76.22687817       84.65942383
 O    8.0      85.93057632       76.84585094       83.98614883
 C    6.0      87.78099060       74.90379810       85.88409424
 O    8.0      88.39637756       74.33351040       86.75519943
 C    6.0      88.73699188       78.51774693       86.23264313
 O    8.0      88.72201920       79.01912212       87.39385605
 C    6.0      86.74011230       80.82946777       86.13521576
 O    8.0      85.82117081       80.10454178       85.99456787
 C    6.0      84.87640381       83.36318970       86.63961411
 O    8.0      85.51002502       84.17547226       85.91733932
 C    6.0      81.38555527       84.39098358       85.87221146
 O    8.0      80.68300247       83.69510651       86.60757065
 C    6.0      79.35249805       87.42128372       85.45871735
 O    8.0      80.07097244       87.92415619       84.60727692
 C    6.0      76.15414143       89.26637650       85.73638916
 O    8.0      75.43367863       88.44432831       86.32787704
 C    6.0      74.17312145       92.40524292       85.96439362
 O    8.0      74.63751316       92.89272308       84.92820740
 C    6.0      71.18009090       94.47437286       86.81533813
 O    8.0      70.85824490       93.93264771       87.86521912
 C    6.0      69.21004772       97.44453430       86.38374329
 O    8.0      69.72819805       97.97748566       85.36458969
 C    6.0      65.73041439       98.61537933       86.27901077
 O    8.0      65.38304806       98.26459885       87.41065979
 C    6.0      62.70431042       98.73197556       84.29304123
 O    8.0      63.27353954       98.62075806       83.19522858
 C    6.0      59.07198429       98.33723068       83.98651123
 O    8.0      58.78286362       98.61408234       85.14329910
 C    6.0      56.13636017       99.07611847       81.73997879
 O    8.0      56.46506310       98.32288742       80.83164215
 C    6.0      53.90828609      101.36465073       80.16618729
 O    8.0      53.98491383      102.16117859       81.05995178
 C    6.0      51.40080452      103.01013947       79.28738117
 O    8.0      51.07903004      104.15216446       79.69430447
 C    6.0      48.90826702      100.50174713       80.48940659
 O    8.0      48.76275539       99.95275497       81.59336090
 C    6.0      49.07524586       97.55596161       77.93931484
 O    8.0      49.17164803       96.36100769       78.05594921
 C    6.0      51.51207924       97.38443375       75.59334278
 O    8.0      52.09136009       96.42431259       76.06977940
 C    6.0      54.44346428       98.44358444       76.19305134
 O    8.0      54.37298775       99.47866440       76.90515041
 C    6.0      57.35793591       97.91923523       77.39556789
 O    8.0      57.86601543       97.89047241       76.31806850
 C    6.0      60.04302502       99.04441833       79.44199085
 O    8.0      59.51967716       98.44934464       80.39644241
 C    6.0      63.75796795       99.94241714       80.10198593
 O    8.0      64.06389713      100.18047333       78.94092083
 C    6.0      66.68357372      100.47166824       82.20394135
 O    8.0      66.29932880      100.28062820       83.35874557
 C    6.0      70.45901775       99.73918915       82.31794357
 O    8.0      70.84797382      100.34421921       81.33525848
 C    6.0      73.34364414       97.62123108       83.80672455
 O    8.0      72.60493755       97.04246521       84.56352234
 C    6.0      76.70625210       95.94896317       83.91267776
 O    8.0      77.48486042       96.85276031       83.62688065
 C    6.0      78.68909359       92.73069382       83.77901077
 O    8.0      77.98534870       91.89706802       84.39010620
 C    6.0      81.66912079       90.94581604       83.19295883
 O    8.0      82.37297058       91.91450119       82.95312881
 C    6.0      83.93861771       88.26847076       84.27730560
 O    8.0      83.36812973       87.32698441       84.87537384
 C    6.0      86.97471619       86.48674011       83.28622818
 O    8.0      87.73580551       87.14063644       82.59426117
 C    6.0      89.50241089       86.57258987       85.13204575
 O    8.0      89.22397614       86.89186096       86.27929688
 C    6.0      90.13072968       89.75442886       84.00894165
 O    8.0      90.30870438       90.93837738       84.32285309
 C    6.0      87.34697342       90.85975647       82.70345688
 O    8.0      86.74522400       90.28747559       83.62493515
 C    6.0      85.15811920       93.71305466       81.59839630
 O    8.0      85.83992004       94.02807236       80.59158325
 C    6.0      81.79790497       95.37616730       81.34822845
 O    8.0      81.11886978       94.49361801       81.91480637
 C    6.0      79.15281773       97.63210297       80.52015305
 O    8.0      79.69155788       97.87458420       79.42085743
 C    6.0      75.64950466       99.03652191       80.07831573
 O    8.0      75.30551434       99.05075073       81.23617172
 C    6.0      72.78780460      100.27290344       78.19577694
 O    8.0      73.15872669      100.19893646       77.00873852
 C    6.0      69.12152767      100.69005966       77.67245770
 O    8.0      68.71795177      101.05524063       78.73462200
 C    6.0      66.11947536       99.94319916       75.69367886
 O    8.0      66.63894176       99.65797424       74.61200237
 C    6.0      62.81613827       98.35355759       75.51441669
 O    8.0      62.32422352       98.48550797       76.64401531
 C    6.0      60.30207157       96.81896210       73.40010166
 O    8.0      61.02268696       96.28622055       72.55725384
 C    6.0      56.99209213       95.12521744       73.32244396
 O    8.0      56.43896580       95.88005066       74.13175106
 C    6.0      54.37719345       92.67063141       71.92520618
 O    8.0      54.82602119       92.32263565       70.84430218
 C    6.0      51.65751457       90.75031281       71.23126507
 O    8.0      50.82999229       91.52038574       71.67447567
 C    6.0      49.74021435       88.49674225       69.15243626
 O    8.0      50.57592869       87.75058746       68.60589504
 C    6.0      47.35039711       87.03845978       67.68859386
 O    8.0      47.03012466       88.15097809       67.19104290
 C    6.0      45.40196419       86.35149002       65.21247387
 O    8.0      45.18057823       86.70673370       64.03379917
 C    6.0      42.46048927       86.95480347       67.37559795
 O    8.0      42.92538643       86.51262283       68.45669270
 C    6.0      39.14300919       87.09491730       68.18460941
 O    8.0      38.49543571       87.60095596       67.28941441
 C    6.0      36.73762321       85.08354187       70.16975880
 O    8.0      37.14672565       84.18413162       70.90689182
 C    6.0      34.14386749       84.02589798       71.60046101
 O    8.0      33.96894455       83.39790344       72.66788960
 C    6.0      34.87652302       80.94665527       70.75245380
 O    8.0      34.49889660       80.02151489       71.44205570
 C    6.0      37.43391037       80.91430664       72.64028072
 O    8.0      37.57105827       80.03158569       73.49886417
 C    6.0      35.74953079       82.02402115       75.23503780
 O    8.0      35.76354504       82.02039719       76.44137859
 C    6.0      33.45559597       79.18278217       74.82635975
 O    8.0      32.50211716       78.55189800       75.31363964
 C    6.0      35.89067936       76.56507015       73.59479427
 O    8.0      36.32854939       76.06425762       72.53530025
 C    6.0      37.94115543       74.90368366       76.18388653
 O    8.0      37.13754654       75.10461330       77.11227894
 C    6.0      39.65860367       73.70995998       78.53331089
 O    8.0      39.12636757       73.90605450       79.64420795
 C    6.0      42.75818348       75.51008701       78.03557873
 O    8.0      43.48274231       74.59733486       77.58563519
 C    6.0      45.14147282       77.25159168       76.93061352
 O    8.0      45.53318977       78.18160534       77.71417141
 C    6.0      48.31323624       76.78282261       75.50217152
 O    8.0      49.18226242       77.67276287       75.66561222
 C    6.0      48.64505768       77.86775112       72.37241268
 O    8.0      48.71576786       77.96738148       71.14598751
 C    6.0      49.29354668       80.75925827       71.70467854
 O    8.0      50.42619705       80.93215942       72.18601704
 C    6.0      49.95054245       82.71154404       69.01134968
 O    8.0      48.95623207       83.42479706       69.09001827
 C    6.0      52.66612530       85.07116318       67.97903538
 O    8.0      53.53486061       84.29719925       67.60969639
 C    6.0      54.43884373       88.19629669       68.40746403
 O    8.0      53.57397079       88.74065399       69.11183834
 C    6.0      57.13806152       90.46087265       68.66775990
 O    8.0      57.99410820       89.96238708       67.91609287
 C    6.0      58.80195618       93.46689224       69.18338299
 O    8.0      58.39020252       93.72274399       70.30149937
 C    6.0      61.86204433       95.42438507       69.05204296
 O    8.0      62.16032505       95.44422150       67.89244175
 C    6.0      64.14319515       97.71001816       70.61804295
 O    8.0      63.73056889       97.78556824       71.78609371
 C    6.0      67.49356747       99.07472610       71.05163097
 O    8.0      67.75586605       99.27846909       69.87058163
 C    6.0      70.14778614      100.41944504       72.98779964
 O    8.0      69.88216877      100.76002121       74.12129879
 C    6.0      73.74395847      100.20074844       73.32939625
 O    8.0      73.98745060      100.39167404       72.12604046
 C    6.0      76.77301884      100.58549881       75.34188747
 O    8.0      76.37432575      100.05687714       76.35384083
 C    6.0      80.36653519      100.86219788       75.72239399
 O    8.0      80.74357986      101.22091293       74.59448338
 C    6.0      83.37196350      101.73212051       76.49267673
 O    8.0      83.63248825      100.58515549       76.76197529
 C    6.0      86.65189743      101.79843903       75.96800327
 O    8.0      87.64127731      102.37958908       75.61506748
 C    6.0      89.02202606      100.66082001       77.97399044
 O    8.0      89.97720718      100.91444016       78.72321606
 C    6.0      90.33916473       98.57828140       75.04181385
 O    8.0      89.41747665       98.75343323       74.21566486
 C    6.0      90.97024918       96.72294617       72.53335476
 O    8.0      90.50758362       96.98308945       71.42092228
 C    6.0      88.12898636       95.23742676       72.42595196
 O    8.0      87.57028580       94.84258652       71.38252735
 C    6.0      86.63703918       97.84097672       71.47170544
 O    8.0      85.67754745       97.81299591       70.69489956
 C    6.0      88.02122116       98.29998016       68.81583691
 O    8.0      87.21708298       98.30615997       67.91160107
 C    6.0      87.92339325       95.47142029       67.54997730
 O    8.0      87.82663345       95.10364532       66.33581638
 C    6.0      84.69158173       95.38068771       67.52084255
 O    8.0      83.98916245       94.98508453       66.66212559
 C    6.0      84.47851181       97.86293030       65.75413227
 O    8.0      83.73519897       97.59519577       64.78283405
 C    6.0      86.15785599       96.87829971       63.49298477
 O    8.0      86.25595093       96.80835724       62.24569798
 C    6.0      84.10110474       94.46533203       63.16788673
 O    8.0      83.78110886       94.02027130       62.07616329
 C    6.0      81.49951935       96.06628418       62.59112358
 O    8.0      80.73644638       95.62749863       61.74979687
 C    6.0      82.28908539       97.75337219       59.99147892
 O    8.0      81.83219910       98.33078384       59.02009487
 C    6.0      82.65029907       94.69022751       58.29090595
 O    8.0      82.67259598       94.24316406       57.11683273
 C    6.0      79.67996120       93.29219818       58.99596214
 O    8.0      78.96332264       92.56063461       58.36537838
 C    6.0      77.77326107       95.33258438       57.62038231
 O    8.0      78.75354290       95.86071014       57.06326485
 C    6.0      77.17740536       94.60931778       54.46610928
 O    8.0      77.33691692       94.99010086       53.29060555
 C    6.0      78.57590199       91.94221497       53.05663586
 O    8.0      79.44812298       91.66913986       52.17390537
 C    6.0      75.16612530       90.61420441       52.16507435
 O    8.0      74.67158794       90.89824677       53.21857929
 C    6.0      72.41321087       89.20938492       51.92929268
 O    8.0      71.38140202       89.41644669       52.59583950
 C    6.0      72.85956860       87.41868973       54.51036930
 O    8.0      72.39839077       86.71644211       55.36614895
 C    6.0      72.73518085       89.01325226       57.17020035
 O    8.0      72.92882442       88.48669052       58.25937748
 C    6.0      70.01245975       87.96346664       57.83514977
 O    8.0      69.56250668       87.78291702       58.93826008
 C    6.0      70.92975140       84.70880508       58.10829639
 O    8.0      70.57402134       84.06274796       59.07083035
 C    6.0      73.77152920       84.57611084       59.60435390
 O    8.0      74.43165302       83.79230499       60.28649807
 C    6.0      72.99095631       85.10858536       62.50002861
 O    8.0      73.62992764       84.96316910       63.56854916
 C    6.0      72.29436398       81.97050095       63.22169304
 O    8.0      72.30015278       81.50701523       64.29022312
 C    6.0      75.26309490       81.10208511       63.51872444
 O    8.0      75.92230320       80.24982452       64.16914463
 C    6.0      75.42886257       83.11513901       66.15579128
 O    8.0      75.95464230       82.90462494       67.22257137
 C    6.0      73.24872494       82.89808273       68.19402218
 O    8.0      73.71376514       82.84568787       69.32157993
 C    6.0      73.26007366       79.52619076       68.31062794
 O    8.0      73.18979740       78.57824802       67.47554302
 C    6.0      75.39841175       77.58981228       69.59763050
 O    8.0      74.65017796       77.34077930       70.53996563
 C    6.0      74.55654621       74.70577717       69.38045979
 O    8.0      73.91503811       74.93409634       68.34899426
 C    6.0      71.52901173       74.40787792       70.36842823
 O    8.0      70.38142681       74.01527882       70.35128117
 C    6.0      70.27059078       76.80795193       68.87660503
 O    8.0      69.01348591       77.01098919       68.75324726
 C    6.0      69.58403111       75.15275478       66.49750233
 O    8.0      68.46618176       75.30489445       65.91205120
 C    6.0      67.72862911       72.86003590       67.71341801
 O    8.0      66.76536083       72.26818562       67.19093800
 C    6.0      65.33976078       74.73902225       69.33013439
 O    8.0      64.21466351       74.75073338       69.78167057
 C    6.0      63.66939068       75.35126209       66.99056149
 O    8.0      62.45556355       75.64278126       67.06881046
 C    6.0      62.30047703       72.48275280       66.83766842
 O    8.0      61.08906269       72.41110325       66.60180569
 C    6.0      61.03900433       72.54944324       69.83355045
 O    8.0      59.89639759       72.16267109       70.12542248
 C    6.0      59.57292080       75.45682430       69.79132175
 O    8.0      58.69340420       76.15503788       70.29478550
 C    6.0      58.43497753       77.05807209       67.29717731
 O    8.0      57.48890877       77.60462284       67.83993244
 C    6.0      60.47294140       79.83617306       65.49417019
 O    8.0      61.34189129       79.09205914       64.92958546
 C    6.0      61.37027264       83.26435089       64.53661442
 O    8.0      60.55491924       83.95277023       65.13633251
 C    6.0      63.17261219       85.79687119       62.92290211
 O    8.0      63.61451626       85.13088226       61.97475433
 C    6.0      62.31721401       89.22777176       61.49823189
 O    8.0      62.03037739       89.84777451       62.55005360
 C    6.0      63.33791256       92.17443466       61.03053093
 O    8.0      63.13257694       93.14142227       61.71802998
 C    6.0      66.21028423       93.22326660       61.17340088
 O    8.0      66.33247852       93.15376282       59.91626740
 C    6.0      68.26620579       96.11995697       62.21967697
 O    8.0      67.85631657       96.43621445       63.31696987
 C    6.0      69.74068165       98.88980865       61.84099197
 O    8.0      69.91585255       99.00373459       60.66766739
 C    6.0      69.74980831      102.22043991       62.32281685
 O    8.0      69.57752705      103.26616287       61.71445370
 C    6.0      73.00693989      102.26411819       64.24698353
 O    8.0      72.59605885      101.62492752       65.21525860
 C    6.0      76.51125431      103.32654953       64.80720997
 O    8.0      76.74718380      103.79358292       63.67008686
 C    6.0      78.92911434      104.90667343       67.15303898
 O    8.0      78.44310284      104.37561035       68.17094326
 C    6.0      80.62114716      107.53622055       68.43348026
 O    8.0      80.38747787      108.35771561       67.57149220
 C    6.0      80.94818115      109.15275574       71.89094067
 O    8.0      81.50880814      108.15013885       72.36714840
 C    6.0      79.80336666      110.30540466       74.86447811
 O    8.0      78.74312878      110.89859009       74.58047390
 C    6.0      79.66331005      110.20740509       78.31120014
 O    8.0      80.84140778      110.62650681       78.11836720
 C    6.0      80.90805054      110.45085907       81.14786148
 O    8.0      81.69904709      111.30441666       81.52605057
 C    6.0      83.65741730      108.95141602       80.48387527
 O    8.0      84.83676910      109.04005051       80.80547333
 C    6.0      83.84948730      108.36708069       76.86879635
 O    8.0      82.74145126      108.73605728       76.57489300
 C    6.0      83.33850861      106.01718903       74.87857342
 O    8.0      83.63246918      105.25375366       75.82166195
 C    6.0      80.82860947      104.52941895       72.47372150
 O    8.0      80.60272217      105.42222977       71.68551922
 C    6.0      78.54727268      102.44316101       71.23490810
 O    8.0      78.26419353      101.81615829       72.25450039
 C    6.0      75.50809383      102.32383728       69.36753750
 O    8.0      75.98147869      102.53744125       68.23503971
 C    6.0      72.14163303      101.03340149       68.70725155
 O    8.0      71.67501926      101.00889206       69.84265804
 C    6.0      69.43799496       99.94321823       66.57262325
 O    8.0      69.88095760       99.95635986       65.40013790
 C    6.0      66.86727047       97.36160278       66.61283970
 O    8.0      66.44818783       97.68537521       67.75127888
 C    6.0      64.52320576       94.75793839       65.14251232
 O    8.0      65.17099857       94.41080093       64.15920734
 C    6.0      61.86101437       92.20836639       65.48675060
 O    8.0      61.17323399       92.69807816       66.37176991
 C    6.0      60.55724621       88.66172791       65.62658787
 O    8.0      61.44260883       88.05208206       64.97964382
 C    6.0      58.37308407       86.02035522       66.96474552
 O    8.0      57.59399414       86.67531967       67.62802601
 C    6.0      57.02575207       82.73109436       66.80430889
 O    8.0      58.04402351       82.14879990       66.49220943
 C    6.0      54.79767323       80.01728058       67.94126034
 O    8.0      53.77835274       80.68178177       68.04792881
 C    6.0      52.55983353       77.50316143       68.58288288
 O    8.0      51.75909042       76.60913944       68.33560467
 C    6.0      52.50393867       77.30367184       72.21302509
 O    8.0      51.83327198       77.22754002       73.27675343
 C    6.0      55.39215565       77.27918148       73.86209011
 O    8.0      55.67207813       77.27248669       75.07501125
 C    6.0      56.03019238       80.10055542       74.67527866
 O    8.0      55.05319595       80.85947037       74.52455044
 C    6.0      55.75967789       82.00263977       77.12188244
 O    8.0      54.82294083       82.64873505       77.57690907
 C    6.0      55.77600956       84.71580505       75.87502003
 O    8.0      55.44373035       85.85210800       76.01245403
 C    6.0      52.85422802       83.92293930       74.56159115
 O    8.0      51.88785076       84.69633102       74.82431889
 C    6.0      51.02417946       82.72386551       76.83892727
 O    8.0      49.89995480       82.55865097       77.18834400
 C    6.0      52.06350803       85.25310516       79.25730228
 O    8.0      52.41018772       85.71640015       80.43834686
 C    6.0      52.45933533       88.38258743       79.00131702
 O    8.0      53.39041233       89.02580261       79.48815823
 C    6.0      50.78175068       88.92015457       81.68548584
 O    8.0      50.74708939       89.61923599       82.66960144
 C    6.0      52.01949596       86.95812225       83.85257721
 O    8.0      52.16860771       87.41247177       84.99052048
 C    6.0      54.91791248       88.20363998       83.82209778
 O    8.0      56.12485886       88.30068588       84.05712128
 C    6.0      53.39366913       90.91329575       85.47815323
 O    8.0      52.59068012       91.79256439       85.19834518
 C    6.0      52.71111488       91.89119339       88.56983185
 O    8.0      52.92975426       91.76078796       89.78553772
 C    6.0      52.33511448       95.08262634       89.12956238
 O    8.0      52.67395020       96.10326767       89.75597382
 C    6.0      49.77760315       94.45035934       91.26735687
 O    8.0      49.28122997       95.06658554       92.20027924
 C    6.0      51.17763519       92.36053467       93.57408524
 O    8.0      51.22558117       91.69122696       94.64420319
 C    6.0      53.19778919       94.21125412       95.20547867
 O    8.0      53.84637356       95.24557114       95.31122208
 C    6.0      53.07514191       94.78139877       98.32101822
 O    8.0      52.87228107       95.10028839       99.51473236
 C    6.0      56.66528702       93.61257553       97.69927979
 O    8.0      56.33849144       93.32550049       96.52986526
 C    6.0      59.02244091       91.68352127       97.11568832
 O    8.0      58.71051788       90.94091415       98.00838470
 C    6.0      60.98845005       89.43321228       95.02792358
 O    8.0      61.66644573       90.29096603       94.45337296
 C    6.0      63.12396526       86.38040543       95.00453949
 O    8.0      62.18707561       85.57552338       95.20240784
 C    6.0      66.03984356       84.18281555       94.32537079
 O    8.0      66.83229923       85.07888794       93.96583557
 C    6.0      68.03995609       81.18827820       94.74067688
 O    8.0      67.09372044       80.47025681       95.16021729
 C    6.0      70.96589565       79.23038006       93.50021362
 O    8.0      71.68125629       80.18751144       93.20869446
 C    6.0      72.65825748       75.96995831       92.45147705
 O    8.0      71.76849842       75.17760754       92.70765305
 C    6.0      75.59504986       73.94380093       91.28904343
 O    8.0      76.40152454       74.84009266       91.12569809
 C    6.0      77.14466572       70.83568096       90.41769028
 O    8.0      76.23949528       70.01818180       90.58990479
 C    6.0      79.49078083       69.24575329       88.01651001
 O    8.0      80.45417786       70.04011631       88.01092148
 C    6.0      80.79759598       66.28813744       86.23746872
 O    8.0      79.72721577       65.86430550       85.85914612
 C    6.0      80.85391998       63.36969376       84.91827011
 O    8.0      80.69597244       62.57507324       83.97195816
 C    6.0      78.33046436       62.41568089       87.50791550
 O    8.0      77.71833897       61.49190903       88.17945480
 C    6.0      76.48437977       65.51795006       88.49897385
 O    8.0      77.26613522       66.40420914       88.03003311
 C    6.0      74.02639866       67.19210148       90.74707031
 O    8.0      73.55043888       66.16880894       91.17797852
 C    6.0      72.90780544       70.13951778       92.63059616
 O    8.0      73.55254650       70.99901676       92.04130173
 C    6.0      69.87953663       72.03846455       93.94441605
 O    8.0      69.44335461       71.18070126       94.76310730
 C    6.0      68.13232899       75.32784939       94.75181580
 O    8.0      68.80207539       76.11526966       94.20309067
 C    6.0      65.07312298       77.42993832       95.74800491
 O    8.0      64.49246883       76.51364803       96.36241913
 C    6.0      63.69914532       80.79631805       96.57682419
 O    8.0      64.58857059       81.62563324       96.32469177
 C    6.0      60.36123753       82.56011963       96.72416687
 O    8.0      59.61346149       81.59788132       96.93660736
 C    6.0      57.98357487       85.32356262       95.94591141