 $contrl units=angs local=boys runtyp=makefp 
       mult=1 icharg=0 coord=cart icut=11 $end
 $system timlim=99999 mwords=200 $end
 $scf soscf=.f. dirscf=.t. diis=.t. CONV=1.0d-06 $end
 $basis gbasis=n31 ngauss=6 ndfunc=1 $end
 $DAMP IFTTYP(1)=2,0 IFTFIX(1)=1,1 thrsh=500.0 $end
 $MAKEFP POL=.t. DISP=.f. CHTR=.f. EXREP=.f. $end
 $data
 q_1083_18678
 C1
 C    6.0      61.89960957       45.62880993       60.64703941
 O    8.0      61.38078213       45.44507980       61.70609951
 N    7.0      61.27873898       45.26673317       59.54341888
 H    1.0      61.85413837       45.31593323       58.71481419
 CA   6.0      59.81399059       44.80933666       59.37478542
 HA   1.0      59.26118374       45.46379089       60.04872322
 CB   6.0      59.30534840       45.10922909       57.93468952
 HB1  1.0      58.29056740       44.74006653       57.78627872
 HB2  1.0      59.91909504       44.56125736       57.21974850
 CG   6.0      59.24699306       46.59674168       57.70518303
 HG1  1.0      60.28383732       46.90340519       57.84301758
 HG2  1.0      58.65685463       47.11508274       58.46093655
 CD   6.0      58.77755165       47.11383820       56.35447979
 OE1  8.0      58.02993298       46.43957615       55.66719532
 NE2  7.0      59.14141178       48.30084801       55.94561577
 HE21 1.0      58.69967461       48.70327473       55.13135433
 HE22 1.0      59.83607769       48.69967461       56.56080723
 H000 1.0      62.77777318       46.24920801       60.55830498
 H000 1.0      59.75840280       43.76035557       59.62072762
 $end 
!comment atoms to be erased:
!polarization points to remove: