 $contrl units=angs local=boys runtyp=makefp 
       mult=1 icharg=0 coord=cart icut=11 $end
 $system timlim=99999 mwords=200 $end
 $scf soscf=.f. dirscf=.t. diis=.t. CONV=1.0d-06 $end
 $basis gbasis=n31 ngauss=6 ndfunc=1 $end
 $DAMP IFTTYP(1)=2,0 IFTFIX(1)=1,1 thrsh=500.0 $end
 $MAKEFP POL=.t. DISP=.f. CHTR=.f. EXREP=.f. $end
 $data
 q_255_3890
 C1
 C    6.0      68.42067242       39.94027138       62.79278278
 O    8.0      67.50633717       39.93146420       63.61649036
 N    7.0      69.54557896       39.31774616       63.14285755
 H    1.0      70.26644230       39.36515808       62.43702412
 CA   6.0      69.95010853       39.03564453       64.50042248
 HA   1.0      69.03353214       38.95268917       65.08447170
 CB   6.0      70.58499813       37.71948338       64.56940174
 HB1  1.0      70.79274654       37.42611885       65.59841633
 HB2  1.0      71.58421993       37.72449493       64.13395405
 CG   6.0      69.95642185       36.54171467       63.90635014
 HG1  1.0      69.53288555       36.71846867       62.91767120
 HG2  1.0      68.97781849       36.40412807       64.36625004
 CD   6.0      70.93507290       35.37614346       63.81447315
 OE1  8.0      70.83515644       34.43567276       64.63537693
 NE2  7.0      71.85907841       35.35665989       62.81921387
 HE21 1.0      72.53443241       34.60569859       62.81102180
 HE22 1.0      71.86131001       36.10494137       62.14085579
 H000 1.0      68.29003093       40.43451569       61.84273317
 H000 1.0      70.49321954       39.84022430       64.97118860
 $end 
!comment atoms to be erased:
!polarization points to remove: