 $contrl units=angs local=boys runtyp=makefp 
       mult=1 icharg=0 coord=cart icut=11 $end
 $system timlim=99999 mwords=200 $end
 $scf soscf=.f. dirscf=.t. diis=.t. CONV=1.0d-06 $end
 $basis gbasis=n31 ngauss=6 ndfunc=1 $end
 $DAMP IFTTYP(1)=2,0 IFTFIX(1)=1,1 thrsh=500.0 $end
 $MAKEFP POL=.t. DISP=.f. CHTR=.f. EXREP=.f. $end
 $data
 q_304_4623
 C1
 C    6.0      85.62599182       46.80225372       77.12283611
 O    8.0      85.67016602       46.63794518       78.38019848
 N    7.0      86.69290543       46.89205170       76.31830692
 H    1.0      86.50541306       46.90817356       75.32598972
 CA   6.0      88.05353165       47.18619347       76.75242901
 HA   1.0      88.08794022       47.73588181       77.69304752
 CB   6.0      88.72678757       45.82223415       77.15762615
 HB1  1.0      88.22425842       45.38028717       78.01799297
 HB2  1.0      89.77272034       45.96301079       77.43027210
 CG   6.0      88.71814728       44.74914551       76.05258465
 HG1  1.0      89.15370941       45.10478020       75.11882305
 HG2  1.0      87.71715164       44.40903664       75.78721523
 CD   6.0      89.47505951       43.54723454       76.59173489
 OE1  8.0      89.59835052       43.26282501       77.79066563
 NE2  7.0      90.06343842       42.78995037       75.70096493
 HE21 1.0      90.10770798       43.01645279       74.71768856
 HE22 1.0      90.45015335       41.90438271       75.99478245
 H000 1.0      84.67288340       46.93586297       76.63532016
 H000 1.0      88.70529169       47.77123283       76.12244750
 $end 
!comment atoms to be erased:
!polarization points to remove: