 $contrl units=angs local=boys runtyp=makefp 
       mult=1 icharg=0 coord=cart icut=11 $end
 $system timlim=99999 mwords=200 $end
 $scf soscf=.f. dirscf=.t. diis=.t. CONV=1.0d-06 $end
 $basis gbasis=n31 ngauss=6 ndfunc=1 $end
 $DAMP IFTTYP(1)=2,0 IFTFIX(1)=1,1 thrsh=500.0 $end
 $MAKEFP POL=.t. DISP=.f. CHTR=.f. EXREP=.f. $end
 $data
 q_325_4978
 C1
 C    6.0      93.05906296       48.39563370       85.65479279
 O    8.0      93.03485870       47.52821922       86.56028748
 C    6.0      96.56078339       48.56173038       84.32985306
 O    8.0      96.40888214       49.50638294       83.50858688
 C    6.0     100.12615204       47.60689735       84.47914124
 O    8.0     100.07537842       46.76684856       85.41267395
 C    6.0     103.38216782       47.38647938       82.67776489
 O    8.0     103.15711975       47.74494648       81.52442932
 C    6.0     105.45246124       49.62652206       81.97515488
 O    8.0     105.17879486       50.61565876       82.66656876
 C    6.0     103.35424423       50.70192814       79.12917614
 O    8.0     103.02185059       51.51867390       78.28025341
 C    6.0     100.20000458       49.38392639       79.86532688
 O    8.0     100.31099319       49.19496536       81.05382919
 C    6.0      96.58594131       49.89973545       79.76725101
 O    8.0      96.42099380       49.77836609       78.55573177
 N    7.0      95.70999146       49.49599266       80.68510056
 H    1.0      96.02302551       49.52939510       81.64478302
 CA   6.0      94.47448730       48.82034302       80.33580780
 HA   1.0      94.27907944       48.86453152       79.26436901
 CB   6.0      94.58950043       47.37112045       80.56846619
 HB1  1.0      93.59373093       46.94377422       80.45053482
 HB2  1.0      94.96326447       47.29676247       81.58967972
 CG   6.0      95.52978516       46.67693615       79.59065914
 HG1  1.0      96.54663086       46.85343266       79.94139194
 HG2  1.0      95.38835526       47.08383560       78.58939648
 CD   6.0      95.33082962       45.11529922       79.63722706
 HD1  1.0      94.43302155       44.79423523       79.10905361
 HD2  1.0      95.29706955       44.82399464       80.68702698
 NE   7.0      96.59589767       44.55446720       79.07707691
 HE   1.0      97.44194031       45.10195255       79.14472103
 CZ   6.0      96.82756424       43.41822147       78.46457005
 NH1  7.0      95.87575912       42.43179321       78.32670689
 HH11 1.0      94.92307663       42.62896538       78.59805584
 HH12 1.0      96.14341736       41.47541523       78.14286709
 NH2  7.0      98.00020218       43.12988281       78.02350521
 HH21 1.0      98.63782883       43.91307354       78.01166058
 HH22 1.0      98.23947906       42.21234798       77.67569065
 H000 1.0      93.76965004       48.67441498       84.89237172
 H000 1.0      93.64725849       49.28299879       80.85115335
 $end 
!comment atoms to be erased:
!polarization points to remove: