 $contrl units=angs local=boys runtyp=makefp 
       mult=1 icharg=0 coord=cart icut=11 $end
 $system timlim=99999 mwords=200 $end
 $scf soscf=.f. dirscf=.t. diis=.t. CONV=1.0d-06 $end
 $basis gbasis=n31 ngauss=6 ndfunc=1 $end
 $DAMP IFTTYP(1)=2,0 IFTFIX(1)=1,1 thrsh=500.0 $end
 $MAKEFP POL=.t. DISP=.f. CHTR=.f. EXREP=.f. $end
 $data
 q_351_5386
 C1
 C    6.0      82.69496918       62.63381481       77.50655651
 O    8.0      82.92846680       61.80486679       76.58051014
 N    7.0      83.64198685       63.17802429       78.25368404
 H    1.0      83.47345352       63.78112316       79.04613018
 CA   6.0      85.07638931       63.22123528       77.96366215
 HA   1.0      85.18260956       63.32360744       76.88369274
 CB   6.0      85.62335968       64.48860168       78.65095615
 HB1  1.0      85.62505722       64.31606293       79.72721577
 HB2  1.0      84.89536285       65.29225349       78.54023457
 CG   6.0      86.95756912       64.96577740       78.17075253
 HG1  1.0      86.87946320       64.90466595       77.08527088
 HG2  1.0      87.70107269       64.25023556       78.52191448
 CD   6.0      87.36665726       66.42508507       78.56245518
 OE1  8.0      88.41451645       66.70279980       79.12028790
 NE2  7.0      86.50856018       67.42907047       78.32255840
 HE21 1.0      86.93790436       68.33498478       78.44531536
 HE22 1.0      85.58580399       67.41868019       77.91205883
 H000 1.0      81.68092152       62.76891906       77.84918324
 H000 1.0      85.57859249       62.32083549       78.28148456
 $end 
!comment atoms to be erased:
!polarization points to remove: