 $contrl units=angs local=boys runtyp=makefp 
       mult=1 icharg=0 coord=cart icut=11 $end
 $system timlim=99999 mwords=200 $end
 $scf soscf=.f. dirscf=.t. diis=.t. CONV=1.0d-06 $end
 $basis gbasis=n31 ngauss=6 ndfunc=1 $end
 $DAMP IFTTYP(1)=2,0 IFTFIX(1)=1,1 thrsh=500.0 $end
 $MAKEFP POL=.t. DISP=.f. CHTR=.f. EXREP=.f. $end
 $data
 q_865_15302
 C1
 C    6.0      63.40053082       57.05191612       48.63784313
 O    8.0      64.22078609       57.85808563       48.19109917
 C    6.0      61.44702435       58.93598080       46.82944298
 O    8.0      60.36566257       59.16066647       47.45096207
 C    6.0      60.95694065       62.01934338       45.29204369
 O    8.0      60.59826374       61.35046959       44.34206486
 C    6.0      58.91266823       65.34550190       45.20334244
 O    8.0      59.18069363       65.69309711       46.34866238
 C    6.0      55.71146488       66.67253017       44.64993954
 O    8.0      55.37287235       66.45810127       43.49486351
 C    6.0      52.97969341       68.22514057       45.35434246
 O    8.0      53.37773800       69.05667782       46.12891197
 C    6.0      49.90599632       69.50513363       44.24820900
 O    8.0      49.42872524       68.37126255       44.05491829
 C    6.0      47.08909988       71.90109730       44.34138298
 O    8.0      47.65246868       72.98747540       44.28782463
 C    6.0      43.56396198       72.85653591       44.22810078
 O    8.0      42.88972855       71.85579777       44.05032158
 C    6.0      41.08466148       74.83479977       46.05165958
 O    8.0      41.49383545       75.99612713       45.84860325
 C    6.0      37.97116756       75.08050442       47.78389454
 O    8.0      37.80684471       73.86648655       47.98685074
 C    6.0      35.94301701       76.74983501       50.21084785
 O    8.0      36.09122276       77.88612843       49.71524715
 C    6.0      32.77578831       76.99546337       52.17186451
 O    8.0      32.62947559       75.82340717       52.47473240
 C    6.0      30.21718025       78.80997181       53.89245987
 O    8.0      30.44874191       79.96817112       53.59068394
 C    6.0      27.73511887       80.08222580       55.47924519
 O    8.0      28.14575195       79.78068829       56.60613537
 C    6.0      26.17124081       82.45594025       57.04226017
 O    8.0      25.49602032       83.50652695       57.17825413
 C    6.0      24.93138790       81.52145386       60.10680676
 O    8.0      24.15582180       81.17670059       61.00016594
 C    6.0      27.16749668       83.90106201       61.74944878
 O    8.0      28.05891514       84.00978088       60.90267658
 C    6.0      29.22770977       85.94202042       63.20421219
 O    8.0      29.97810841       86.72426224       62.64447212
 C    6.0      31.83051109       84.17158127       63.00423145
 O    8.0      32.99274921       84.37417984       62.99199104
 C    6.0      31.99450493       84.84575272       60.05148411
 O    8.0      33.20622921       85.03707886       59.74367619
 C    6.0      31.97197437       88.23362350       59.95219231
 O    8.0      32.58468151       89.09900665       59.37546730
 C    6.0      34.52322960       88.52106094       61.78602695
 O    8.0      35.39185047       89.42718506       61.53003693
 C    6.0      36.42519474       86.95371628       59.90441322
 O    8.0      37.52349854       87.41086960       59.74418163
 C    6.0      36.05504036       89.00722504       57.45877266
 O    8.0      37.00710773       89.24036026       56.75895214
 C    6.0      37.21926689       91.40903473       58.55925560
 O    8.0      38.14989090       92.02119827       57.95618534
 C    6.0      39.94937897       90.22220612       59.53306198
 O    8.0      41.11031532       90.60495377       59.42195892
 C    6.0      40.70714951       89.41804886       56.65728569
 O    8.0      41.91573620       89.51425552       56.29301548
 C    6.0      40.78526497       92.31149673       55.27701378
 O    8.0      41.61408424       92.75550842       54.48767185
 C    6.0      42.98760414       93.28275681       57.34821320
 O    8.0      43.88010979       94.08941269       57.41084576
 C    6.0      45.32597542       91.06491089       56.23425007
 O    8.0      46.52465820       91.41340256       56.06574059
 C    6.0      45.62965393       91.10057831       53.09686661
 O    8.0      46.54211521       91.00526810       52.22231865
 C    6.0      46.40140057       94.23553467       52.99242496
 O    8.0      46.85615063       95.20092010       52.42058277
 C    6.0      49.06775475       93.94124985       55.53952694
 O    8.0      50.16928673       94.51280594       55.67695141
 C    6.0      51.07677937       91.72433853       55.16223907
 O    8.0      50.73469639       91.23613358       54.05414581
 C    6.0      53.96255970       90.53325653       54.34901714
 O    8.0      54.34195995       89.96215820       55.35197258
 C    6.0      53.47685337       87.48104095       53.33489418
 O    8.0      53.95125389       86.35576248       53.53226185
 C    6.0      51.28411293       85.40651321       53.55899811
 O    8.0      51.13662243       84.56531525       54.41393375
 C    6.0      52.82904148       82.90269852       52.26927280
 O    8.0      52.82738209       81.62700653       52.09726334
 C    6.0      54.63914394       82.91961670       55.20778656
 O    8.0      54.75768089       81.96561813       55.99390030
 C    6.0      52.65703201       83.91298294       57.65322208
 O    8.0      52.61258602       83.88618469       58.88952255
 C    6.0      51.28109455       81.11038208       57.78822899
 O    8.0      50.66288471       80.60356140       58.67539406
 C    6.0      53.27274323       79.52340603       59.41184998
 O    8.0      53.44873428       78.51793766       60.07482052
 C    6.0      52.67935753       80.79238892       62.32666492
 O    8.0      52.94446945       80.91117859       63.53763580
 C    6.0      49.79995251       78.84254932       62.27469921
 O    8.0      49.11574841       78.27548504       63.16134453
 C    6.0      50.05478382       75.93739986       61.39610767
 O    8.0      49.21547890       75.18386364       61.86403751
 C    6.0      51.90629482       74.73778248       63.67956638
 O    8.0      52.90867805       74.86219883       64.34831142
 C    6.0      51.27665997       73.53288174       66.44084454
 O    8.0      51.34169579       72.33786106       66.07379436
 C    6.0      53.63912106       72.24852085       67.84759045
 O    8.0      54.43796635       72.76506901       67.02941418
 C    6.0      54.87275600       69.84471798       66.27800465
 O    8.0      55.67800999       69.04074192       65.79586506
 C    6.0      54.95443821       70.99428654       63.45932007
 O    8.0      55.33737183       70.61782360       62.35362530
 C    6.0      57.90227890       71.67603016       63.54673862
 O    8.0      58.63509178       71.63772106       62.58030415
 C    6.0      59.40848827       68.93692493       63.95000935
 O    8.0      60.48098087       68.62470150       63.44369411
 C    6.0      58.42278957       66.77879810       61.59437180
 O    8.0      58.62371922       65.69795132       61.01461887
 C    6.0      60.11126995       67.56320477       59.44806099
 O    8.0      60.31778812       66.79341793       58.55010033
 C    6.0      62.60955334       66.13649845       60.09326458
 O    8.0      63.64463329       65.67594051       59.62061882
 N    7.0      61.76894665       65.45238495       60.84249973
 H    1.0      61.00481510       66.01281166       61.19194984
 CA   6.0      61.77282810       64.02323246       61.14730358
 HA   1.0      62.79015064       63.74024868       61.41763687
 CB   6.0      60.85750103       63.66884708       62.35846043
 HB1  1.0      59.84019756       63.72655392       61.97132111
 HB2  1.0      60.90706348       64.40539360       63.16041946
 CG   6.0      60.99687099       62.30421066       62.93177128
 HG1  1.0      60.83092213       61.61956787       62.10000992
 HG2  1.0      60.23958683       62.13553905       63.69739056
 CD   6.0      62.39018917       61.91865921       63.46734524
 OE1  8.0      63.26231480       62.80786991       63.58587265
 OE2  8.0      62.71149158       60.72052479       63.54242802
 H000 1.0      63.33208886       57.78611765       49.42537263
 H000 1.0      61.57482918       63.44473135       60.25844375
 $end 
!comment atoms to be erased:
!polarization points to remove: