 $contrl units=angs local=boys runtyp=makefp 
       mult=1 icharg=1 coord=cart icut=11 $end
 $system timlim=99999 mwords=200 $end
 $scf soscf=.f. dirscf=.t. diis=.t. CONV=1.0d-06 $end
 $basis gbasis=n31 ngauss=6 ndfunc=1 $end
 $DAMP IFTTYP(1)=2,0 IFTFIX(1)=1,1 thrsh=500.0 $end
 $MAKEFP POL=.t. DISP=.f. CHTR=.f. EXREP=.f. $end
 $data
 r_251_3832
 C1
 C    6.0      80.40529251       44.44269657       58.29402447
 O    8.0      80.39934158       44.31866646       57.04084873
 N    7.0      79.57307339       43.70973587       59.15554523
 H    1.0      79.63417530       43.83999348       60.15524864
 CA   6.0      78.53672504       42.78185368       58.64408016
 HA   1.0      78.38055134       43.08400631       57.60850430
 CB   6.0      79.03318882       41.31704807       58.68896961
 HB1  1.0      78.10945988       40.73853493       58.67613316
 HB2  1.0      79.61551189       41.16330147       59.59745884
 CG   6.0      79.87385273       40.94062805       57.43025303
 HG1  1.0      80.63449860       41.71814919       57.35969543
 HG2  1.0      79.17655468       40.82278728       56.60079479
 CD   6.0      80.42331696       39.52848911       57.58769512
 HD1  1.0      79.58721638       38.84021282       57.71151543
 HD2  1.0      81.02733612       39.42664146       58.48929405
 NE   7.0      81.26600266       39.07800198       56.50487900
 HE   1.0      81.48056030       39.66840267       55.71399212
 CZ   6.0      81.62366867       37.81799793       56.26662254
 NH1  7.0      81.60661697       36.85034752       57.18194008
 HH11 1.0      81.25345230       37.01227665       58.11422348
 HH12 1.0      81.96830750       35.93005657       56.97616100
 NH2  7.0      82.25248337       37.55773067       55.10781288
 HH21 1.0      82.67280579       36.65367126       54.94621277
 HH22 1.0      82.60671616       38.37084293       54.62464333
 H000 1.0      81.12655037       45.11925927       58.72528880
 H000 1.0      77.71314006       42.96334662       59.31691521
 $end 
!comment atoms to be erased:
!polarization points to remove: