 $contrl units=angs local=boys runtyp=makefp 
       mult=1 icharg=1 coord=cart icut=11 $end
 $system timlim=99999 mwords=200 $end
 $scf soscf=.f. dirscf=.t. diis=.t. CONV=1.0d-06 $end
 $basis gbasis=n31 ngauss=6 ndfunc=1 $end
 $DAMP IFTTYP(1)=2,0 IFTFIX(1)=1,1 thrsh=500.0 $end
 $MAKEFP POL=.t. DISP=.f. CHTR=.f. EXREP=.f. $end
 $data
 r_25_349
 C1
 C    6.0      88.58592987       46.93854332       66.54068470
 O    8.0      88.59481812       46.58023834       65.41242123
 N    7.0      87.77620316       46.33995533       67.46106625
 H    1.0      87.98608780       46.54136181       68.42826366
 CA   6.0      86.78737640       45.32003880       67.07373142
 HA   1.0      86.52709961       45.47392368       66.02650166
 CB   6.0      87.34813690       43.89511585       67.16353893
 HB1  1.0      86.52585983       43.18670273       67.06290722
 HB2  1.0      87.95274734       43.67850304       68.04422855
 CG   6.0      88.10964584       43.53384495       65.82778454
 HG1  1.0      88.96669388       44.20038223       65.73141575
 HG2  1.0      87.49870300       43.65200520       64.93285656
 CD   6.0      88.60200882       42.05420971       65.80275059
 HD1  1.0      87.88633347       41.29095554       66.10830784
 HD2  1.0      89.40328598       42.00182438       66.53984547
 NE   7.0      89.23852921       41.65169239       64.48865414
 HE   1.0      88.89333725       40.76608658       64.14713383
 CZ   6.0      90.35625458       41.99935913       63.95487309
 NH1  7.0      90.78374863       41.38984203       62.87936211
 HH11 1.0      91.64861679       41.60265923       62.40312099
 HH12 1.0      90.17402649       40.66672802       62.52518654
 NH2  7.0      91.05396271       42.91294098       64.48545933
 HH21 1.0      90.70344925       43.36826324       65.31608105
 HH22 1.0      91.93353653       43.16990376       64.06071186
 H000 1.0      89.22968935       47.69442111       66.96277639
 H000 1.0      85.88266667       45.30931727       67.66137438
 $end 
!comment atoms to be erased:
!polarization points to remove: