 $contrl units=angs local=boys runtyp=makefp 
       mult=1 icharg=1 coord=cart icut=11 $end
 $system timlim=99999 mwords=200 $end
 $scf soscf=.f. dirscf=.t. diis=.t. CONV=1.0d-06 $end
 $basis gbasis=n31 ngauss=6 ndfunc=1 $end
 $DAMP IFTTYP(1)=2,0 IFTFIX(1)=1,1 thrsh=500.0 $end
 $MAKEFP POL=.t. DISP=.f. CHTR=.f. EXREP=.f. $end
 $data
 r_339_5204
 C1
 C    6.0      80.36798477       51.47270203       81.06346130
 O    8.0      79.59582806       51.44100189       80.12891769
 N    7.0      80.17690659       52.32438564       82.07101822
 H    1.0      80.83875656       52.16914654       82.81797409
 CA   6.0      79.21782017       53.36934566       82.16619492
 HA   1.0      78.19983006       52.97974110       82.16354370
 CB   6.0      79.46583271       54.09872532       83.47753525
 HB1  1.0      80.37776947       54.69092846       83.40150833
 HB2  1.0      79.55610752       53.38974953       84.30051804
 CG   6.0      78.19363117       55.03252506       83.68747711
 HG1  1.0      77.35581875       54.33532238       83.69653702
 HG2  1.0      78.16483974       55.76920509       82.88461685
 CD   6.0      78.32819462       55.66648483       85.03072739
 HD1  1.0      78.50708485       54.88101006       85.76498032
 HD2  1.0      77.50656605       56.33853436       85.27845383
 NE   7.0      79.51390743       56.54832363       84.91106033
 HE   1.0      79.50505733       57.13748455       84.09074783
 CZ   6.0      80.44101715       56.74080849       85.88441849
 NH1  7.0      80.58403015       55.90723038       86.84494019
 HH11 1.0      80.01039505       55.08748531       86.98301315
 HH12 1.0      81.30924225       56.00729942       87.54076004
 NH2  7.0      81.15203857       57.78679848       85.82397461
 HH21 1.0      80.97600937       58.29561710       84.96944427
 HH22 1.0      81.92689896       57.93619633       86.45435333
 H000 1.0      81.27314729       50.88617633       81.03881754
 H000 1.0      79.30679311       54.07900507       81.35847824
 $end 
!comment atoms to be erased:
!polarization points to remove: