 $contrl units=angs local=boys runtyp=makefp 
       mult=1 icharg=0 coord=cart icut=11 $end
 $system timlim=99999 mwords=200 $end
 $scf soscf=.f. dirscf=.t. diis=.t. CONV=1.0d-06 $end
 $basis gbasis=n31 ngauss=6 ndfunc=1 $end
 $DAMP IFTTYP(1)=2,0 IFTFIX(1)=1,1 thrsh=500.0 $end
 $MAKEFP POL=.t. DISP=.f. CHTR=.f. EXREP=.f. $end
 $data
 t_183_2818
 C1
 C    6.0      67.56036282       65.89422226       57.39959717
 O    8.0      67.49119282       67.07054138       57.72378445
 N    7.0      67.57991314       64.90640163       58.22455406
 H    1.0      67.42344379       64.01492119       57.77636051
 CA   6.0      67.17503071       65.04764080       59.65249538
 HA   1.0      66.46383762       65.85451603       59.82929707
 CB   6.0      66.58151150       63.66217613       60.02355099
 HB   1.0      67.35563755       62.89556026       60.05720139
 CG2  6.0      65.94994068       63.64276409       61.39840126
 HG21 1.0      66.60294056       64.21895981       62.05391884
 HG22 1.0      65.88125706       62.61196136       61.74600601
 HG23 1.0      64.94633198       64.06432629       61.34230137
 OG1  8.0      65.56638241       63.31190586       59.05656815
 HG1  1.0      64.79124546       63.85744095       59.20874596
 H000 1.0      67.58384447       65.72265689       56.33472495
 H000 1.0      68.04083383       65.34097174       60.22545333
 $end 
!comment atoms to be erased:
!polarization points to remove: