 $contrl units=angs local=boys runtyp=makefp 
       mult=1 icharg=0 coord=cart icut=11 $end
 $system timlim=99999 mwords=200 $end
 $scf soscf=.f. dirscf=.t. diis=.t. CONV=1.0d-06 $end
 $basis gbasis=n31 ngauss=6 ndfunc=1 $end
 $DAMP IFTTYP(1)=2,0 IFTFIX(1)=1,1 thrsh=500.0 $end
 $MAKEFP POL=.t. DISP=.f. CHTR=.f. EXREP=.f. $end
 $data
 t_2_17
 C1
 C    6.0      70.76155186       42.01860905       76.94326878
 O    8.0      71.61962032       41.53322220       77.68049717
 N    7.0      70.84313869       41.82930470       75.62709332
 H    1.0      70.21990299       42.27389336       74.96828556
 CA   6.0      72.12911129       41.27278805       75.02546787
 HA   1.0      72.31782436       40.27787209       75.42873859
 CB   6.0      72.07358837       41.17678165       73.51738453
 HB   1.0      73.09104443       40.99864483       73.16932201
 CG2  6.0      71.21322155       39.93433952       73.12353611
 HG21 1.0      71.61098957       38.98471832       73.48145008
 HG22 1.0      71.08396053       39.86201286       72.04365253
 HG23 1.0      70.17605305       40.04338741       73.44054699
 OG1  8.0      71.56110287       42.32026577       72.81185627
 HG1  1.0      70.75188160       42.61427402       73.23650837
 H000 1.0      69.94896478       42.56453601       77.39670553
 H000 1.0      72.98669542       41.90203483       75.20584760
 $end 
!comment atoms to be erased:
!polarization points to remove: