 $contrl units=angs local=boys runtyp=makefp 
       mult=1 icharg=0 coord=cart icut=11 $end
 $system timlim=99999 mwords=200 $end
 $scf soscf=.f. dirscf=.t. diis=.t. CONV=1.0d-06 $end
 $basis gbasis=n31 ngauss=6 ndfunc=1 $end
 $DAMP IFTTYP(1)=2,0 IFTFIX(1)=1,1 thrsh=500.0 $end
 $MAKEFP POL=.t. DISP=.f. CHTR=.f. EXREP=.f. $end
 $data
 t_3_31
 C1
 C    6.0      73.37616444       42.18780518       75.28776646
 O    8.0      73.18304539       43.35830212       75.65692425
 N    7.0      74.57277775       41.63339138       75.24676800
 H    1.0      74.70072269       40.70482254       74.87061977
 CA   6.0      75.80169201       42.24675179       75.75167179
 HA   1.0      75.54492474       43.06647778       76.42265797
 CB   6.0      76.68417454       41.27321243       76.64397717
 HB   1.0      76.95170879       40.36559582       76.10291004
 CG2  6.0      78.02062511       41.89402103       76.98273182
 HG21 1.0      77.96393871       42.62446880       77.78978825
 HG22 1.0      78.55624676       42.44817257       76.21194363
 HG23 1.0      78.67097378       41.12418652       77.39807606
 OG1  8.0      75.95203876       41.04125977       77.85804272
 HG1  1.0      75.10889530       40.59520721       77.74964809
 H000 1.0      72.51858031       41.55855840       75.10738673
 H000 1.0      76.39967498       42.61651936       74.93336427
 $end 
!comment atoms to be erased:
!polarization points to remove: