 $contrl units=angs local=boys runtyp=makefp 
       mult=1 icharg=0 coord=cart icut=11 $end
 $system timlim=99999 mwords=200 $end
 $scf soscf=.f. dirscf=.t. diis=.t. CONV=1.0d-06 $end
 $basis gbasis=n31 ngauss=6 ndfunc=1 $end
 $DAMP IFTTYP(1)=2,0 IFTFIX(1)=1,1 thrsh=500.0 $end
 $MAKEFP POL=.t. DISP=.f. CHTR=.f. EXREP=.f. $end
 $data
 t_70_1032
 C1
 C    6.0      72.33830929       41.22141361       46.88302517
 O    8.0      73.13109875       40.49708366       46.20445251
 N    7.0      72.21372128       42.51297474       46.64462566
 H    1.0      71.54604435       42.99222946       47.23167419
 CA   6.0      72.80872822       43.32199574       45.57057381
 HA   1.0      73.25963497       42.63654232       44.85298634
 CB   6.0      71.73485279       44.24017906       44.87431049
 HB   1.0      72.28553295       44.97713566       44.28971767
 CG2  6.0      70.80189228       43.48021030       43.99736881
 HG21 1.0      71.41596317       42.80290604       43.40384007
 HG22 1.0      70.26738644       44.05135632       43.23829174
 HG23 1.0      70.09646893       42.88559437       44.57779884
 OG1  8.0      71.00679874       44.97346401       45.88426590
 HG1  1.0      71.56184673       45.75431824       45.94578266
 H000 1.0      71.66484970       40.80629907       47.61655840
 H000 1.0      73.67618801       43.89543750       45.85800548
 $end 
!comment atoms to be erased:
!polarization points to remove: