 $contrl units=angs local=boys runtyp=makefp 
       mult=1 icharg=0 coord=cart icut=11 $end
 $system timlim=99999 mwords=200 $end
 $scf soscf=.f. dirscf=.t. diis=.t. CONV=1.0d-06 $end
 $basis gbasis=n31 ngauss=6 ndfunc=1 $end
 $DAMP IFTTYP(1)=2,0 IFTFIX(1)=1,1 thrsh=500.0 $end
 $MAKEFP POL=.t. DISP=.f. CHTR=.f. EXREP=.f. $end
 $data
 v_1073_18544
 C1
 C    6.0      59.38608646       44.39812660       68.10575008
 O    8.0      59.50063229       45.55376530       67.75912762
 N    7.0      58.29927921       44.02677536       68.83551121
 H    1.0      58.25209141       43.07169914       69.16062832
 CA   6.0      57.09690571       44.85566616       69.11884785
 HA   1.0      56.59296036       45.26851654       68.24494839
 CB   6.0      56.03105545       44.08451080       69.90702152
 HB   1.0      56.55696392       43.69308472       70.77783108
 CG1  6.0      54.90848541       44.95599747       70.45135975
 HG11 1.0      55.36937237       45.61917305       71.18340015
 HG12 1.0      54.19921875       44.41912651       71.08129025
 HG13 1.0      54.33187485       45.45013428       69.66941357
 CG2  6.0      55.23561001       43.02331448       69.14982319
 HG21 1.0      54.89272594       42.23449707       69.81938839
 HG22 1.0      55.88857174       42.52800465       68.43121052
 HG23 1.0      54.35227871       43.33735466       68.59376431
 H000 1.0      60.18348752       43.70128846       67.89957771
 H000 1.0      57.48819782       45.64978501       69.73545521
 $end 
!comment atoms to be erased:
!polarization points to remove: