 $contrl units=angs local=boys runtyp=makefp 
       mult=1 icharg=0 coord=cart icut=11 $end
 $system timlim=99999 mwords=200 $end
 $scf soscf=.f. dirscf=.t. diis=.t. CONV=1.0d-06 $end
 $basis gbasis=n31 ngauss=6 ndfunc=1 $end
 $DAMP IFTTYP(1)=2,0 IFTFIX(1)=1,1 thrsh=500.0 $end
 $MAKEFP POL=.t. DISP=.f. CHTR=.f. EXREP=.f. $end
 $data
 v_1020_17676
 C1
 C    6.0      57.60574818       55.70686340       63.09900284
 O    8.0      57.78158665       55.62438011       64.30703640
 N    7.0      58.07167530       56.69366360       62.34724998
 H    1.0      57.74975777       56.78924084       61.39470577
 CA   6.0      59.09434795       57.69565582       62.83860207
 HA   1.0      59.76508617       57.20091343       63.54105473
 CB   6.0      60.02034664       58.28370094       61.78140163
 HB   1.0      60.69953442       58.95778656       62.30332851
 CG1  6.0      60.82001209       57.19121933       61.00709915
 HG11 1.0      60.19547939       56.36307716       60.67206860
 HG12 1.0      61.58522129       56.85296059       61.70576096
 HG13 1.0      61.35140896       57.70275116       60.20456791
 CG2  6.0      59.13037777       59.13678169       60.81622124
 HG21 1.0      58.54829311       59.89847183       61.33495808
 HG22 1.0      58.48458767       58.53380203       60.17787933
 HG23 1.0      59.78351116       59.72499371       60.17160416
 H000 1.0      56.87342004       55.03994292       62.67139149
 H000 1.0      58.63459382       58.51789221       63.36442747
 $end 
!comment atoms to be erased:
!polarization points to remove: