 $contrl units=angs local=boys runtyp=makefp 
       mult=1 icharg=0 coord=cart icut=11 $end
 $system timlim=99999 mwords=200 $end
 $scf soscf=.f. dirscf=.t. diis=.t. CONV=1.0d-06 $end
 $basis gbasis=n31 ngauss=6 ndfunc=1 $end
 $DAMP IFTTYP(1)=2,0 IFTFIX(1)=1,1 thrsh=500.0 $end
 $MAKEFP POL=.t. DISP=.f. CHTR=.f. EXREP=.f. $end
 $data
 v_1033_17863
 C1
 C    6.0      58.16513538       48.38847160       78.62722874
 O    8.0      59.08200741       47.87122250       78.00583363
 C    6.0      55.88743210       45.86691856       78.37327480
 O    8.0      54.91603851       46.58089638       78.28128338
 C    6.0      54.27000999       42.97485352       76.70945644
 O    8.0      54.96003151       42.05892086       77.10040569
 C    6.0      51.55080795       41.35354519       75.11627674
 O    8.0      50.36796570       41.80847645       75.15926838
 C    6.0      51.20301247       39.89080429       71.96850300
 O    8.0      51.87161446       38.83823872       72.28489399
 C    6.0      49.23163414       38.94228458       69.04689312
 O    8.0      48.64861965       39.99583721       68.83985043
 C    6.0      48.53162766       36.90456390       66.08694553
 O    8.0      49.14784431       35.85343361       66.34369373
 C    6.0      46.75611019       36.18067265       63.09543610
 O    8.0      46.30433083       37.27379322       62.82039165
 C    6.0      46.25748158       34.13226128       60.26606083
 O    8.0      46.70071125       33.05013657       60.66594601
 C    6.0      44.36093807       33.27487469       57.43325233
 O    8.0      44.24482822       34.34228897       56.84381008
 C    6.0      42.97269344       31.24925137       54.90529060
 O    8.0      42.32795715       30.68971157       55.80521107
 C    6.0      41.89744473       28.80434990       53.49975586
 O    8.0      42.92405128       28.26729774       53.87600422
 C    6.0      42.00654507       25.86005688       52.72975922
 O    8.0      41.82049751       25.74014425       51.53609753
 C    6.0      45.44790745       25.62829256       52.19583988
 O    8.0      46.57824993       25.08208036       51.99537754
 C    6.0      47.20043182       28.00237656       53.29224586
 O    8.0      46.68733597       27.93603420       54.41960812
 C    6.0      50.77882290       28.86869907       54.00726318
 O    8.0      51.02583408       29.55040455       53.00284386
 C    6.0      53.80852222       29.15381432       54.57047462
 O    8.0      54.15253639       28.00845146       54.91235256
 C    6.0      57.07174778       29.81295586       53.70550632
 O    8.0      58.10444355       29.19705868       53.61112595
 C    6.0      57.58410931       32.77098179       55.95069408
 O    8.0      56.62993431       33.47693443       55.62118530
 C    6.0      58.95050526       34.37217236       58.94460678
 O    8.0      59.80021954       33.52850914       59.28813934
 C    6.0      59.53407764       37.30947495       61.19622707
 O    8.0      59.34402943       38.36263180       60.64334393
 C    6.0      59.00760174       34.69700336       63.17112446
 O    8.0      57.93792725       34.69234467       62.53432274
 C    6.0      57.47453213       31.98516369       64.28240299
 O    8.0      57.30408192       32.45778084       65.43249607
 C    6.0      55.23804665       30.26251793       65.60985088
 O    8.0      55.77755451       29.14580822       65.46033382
 C    6.0      53.35723877       28.95856857       68.03194523
 O    8.0      53.39041233       27.93024063       68.72440815
 C    6.0      50.52090168       28.28241825       65.87698460
 O    8.0      50.81696510       29.11111355       65.00604153
 C    6.0      47.85163403       26.07377768       64.46849346
 O    8.0      47.83099651       25.22523880       65.41365147
 C    6.0      44.89645481       25.50013542       62.29054928
 O    8.0      44.11945820       26.43132687       62.04182148
 C    6.0      45.14060974       25.48611879       59.10391331
 O    8.0      46.13480568       25.50512791       58.36388111
 C    6.0      44.91495609       28.94697189       59.35715675
 O    8.0      45.00274181       30.01324177       58.81440163
 C    6.0      46.85227394       29.81215477       62.05630302
 O    8.0      47.39700317       28.72891903       62.12690353
 C    6.0      49.08400059       32.15841770       63.65369320
 O    8.0      48.34939480       33.15933704       63.52267265
 C    6.0      51.41863346       33.03771973       66.38557911
 O    8.0      52.39808559       32.29387760       66.19375706
 C    6.0      52.73150444       35.40339470       68.75267506
 O    8.0      51.75801754       36.11994267       68.92903805
 C    6.0      55.13353348       35.39965630       71.74387455
 O    8.0      55.81380367       34.49899197       71.37161732
 C    6.0      58.02007198       36.36693954       72.46221066
 O    8.0      58.01454067       36.98603153       71.37727261
 C    6.0      60.90075970       36.96450233       71.31606579
 O    8.0      60.66318035       38.16916466       71.65805340
 N    7.0      61.50872707       36.60951614       70.17677784
 H    1.0      61.65615559       35.63266277       69.96671200
 CA   6.0      61.92281246       37.58600712       69.11718845
 HA   1.0      62.88078785       37.96788216       69.47011471
 CB   6.0      62.34721661       36.64018631       68.00555706
 HB1  1.0      62.61915684       37.18526363       67.10165501
 HB2  1.0      61.60891056       35.86408615       67.80385494
 HB3  1.0      63.19532871       36.04820728       68.34956646
 H000 1.0      58.34529999       47.43708158       78.15148024
 H000 1.0      61.21914257       38.35283691       68.83300603
 $end 
!comment atoms to be erased:
!polarization points to remove: