 $contrl units=angs local=boys runtyp=makefp 
       mult=1 icharg=0 coord=cart icut=11 $end
 $system timlim=99999 mwords=200 $end
 $scf soscf=.f. dirscf=.t. diis=.t. CONV=1.0d-06 $end
 $basis gbasis=n31 ngauss=6 ndfunc=1 $end
 $DAMP IFTTYP(1)=2,0 IFTFIX(1)=1,1 thrsh=500.0 $end
 $MAKEFP POL=.t. DISP=.f. CHTR=.f. EXREP=.f. $end
 $data
 v_1076_18592
 C1
 C    6.0      60.79975605       49.00493622       68.04853916
 O    8.0      61.13950253       50.18488884       67.95330524
 N    7.0      59.74226475       48.52768421       67.45332241
 H    1.0      59.55008030       47.53855705       67.52249241
 CA   6.0      58.92876148       49.39987659       66.48612499
 HA   1.0      59.64422703       49.94573116       65.87110043
 CB   6.0      58.02377224       48.65963459       65.55618763
 HB   1.0      57.65817165       49.43504333       64.88300800
 CG1  6.0      58.75328541       47.49770641       64.78606701
 HG11 1.0      58.73946190       46.58657074       65.38417339
 HG12 1.0      59.80185986       47.75643349       64.63890553
 HG13 1.0      58.21256638       47.27761745       63.86558056
 CG2  6.0      56.77379131       48.06676388       66.20439053
 HG21 1.0      57.06709862       47.55466938       67.12082386
 HG22 1.0      56.40123367       47.26321220       65.56909084
 HG23 1.0      55.96201420       48.77762318       66.35865688
 H000 1.0      61.38163200       48.31552234       68.64020441
 H000 1.0      58.38366103       50.15982963       67.02396862
 $end 
!comment atoms to be erased:
!polarization points to remove: