 $contrl units=angs local=boys runtyp=makefp 
       mult=1 icharg=0 coord=cart icut=11 $end
 $system timlim=99999 mwords=200 $end
 $scf soscf=.f. dirscf=.t. diis=.t. CONV=1.0d-06 $end
 $basis gbasis=n31 ngauss=6 ndfunc=1 $end
 $DAMP IFTTYP(1)=2,0 IFTFIX(1)=1,1 thrsh=500.0 $end
 $MAKEFP POL=.t. DISP=.f. CHTR=.f. EXREP=.f. $end
 $data
 v_1081_18655
 C1
 C    6.0      63.41595173       50.34430027       63.77762318
 O    8.0      62.94621944       49.25971985       63.98644924
 N    7.0      63.47377300       50.82670689       62.51266003
 H    1.0      64.01795864       51.67571545       62.45660782
 CA   6.0      62.84101963       50.18915176       61.37969017
 HA   1.0      61.83508396       49.93948936       61.71710491
 CB   6.0      62.70751476       51.12302780       60.05142212
 HB   1.0      63.68616581       51.29995346       59.60527420
 CG1  6.0      61.83378696       50.49312115       58.94462109
 HG11 1.0      61.85927868       51.04495049       58.00497055
 HG12 1.0      60.81125736       50.62141418       59.29969788
 HG13 1.0      61.96079731       49.41212654       58.88615608
 CG2  6.0      62.22852230       52.54637241       60.36866665
 HG21 1.0      61.90393925       53.10211182       59.48895454
 HG22 1.0      63.10334682       53.00552845       60.82903385
 HG23 1.0      61.39635563       52.46056080       61.06741428
 H000 1.0      63.72670389       50.95982922       64.60737984
 H000 1.0      63.34348837       49.25703599       61.17323374
 $end 
!comment atoms to be erased:
!polarization points to remove: