 $contrl units=angs local=boys runtyp=makefp 
       mult=1 icharg=0 coord=cart icut=11 $end
 $system timlim=99999 mwords=200 $end
 $scf soscf=.f. dirscf=.t. diis=.t. CONV=1.0d-06 $end
 $basis gbasis=n31 ngauss=6 ndfunc=1 $end
 $DAMP IFTTYP(1)=2,0 IFTFIX(1)=1,1 thrsh=500.0 $end
 $MAKEFP POL=.t. DISP=.f. CHTR=.f. EXREP=.f. $end
 $data
 v_22_301
 C1
 C    6.0      97.85673141       52.18554974       66.36641979
 O    8.0      97.94563293       52.35699177       67.57009983
 N    7.0      96.72143936       52.08066463       65.65803051
 H    1.0      96.83357239       51.89739227       64.67114925
 CA   6.0      95.37166595       52.06997395       66.24073505
 HA   1.0      95.56211472       51.82394028       67.28538990
 CB   6.0      94.71103668       53.50200176       66.12823009
 HB   1.0      94.59341049       53.88313293       65.11383533
 CG1  6.0      93.27852249       53.62281322       66.69920444
 HG11 1.0      93.26042175       53.64125729       67.78889179
 HG12 1.0      92.59290695       52.87719727       66.29659176
 HG13 1.0      92.92644501       54.58945751       66.33901119
 CG2  6.0      95.56131363       54.58712101       66.72938824
 HG21 1.0      94.96316910       55.48833370       66.86401844
 HG22 1.0      96.37145996       54.65634346       66.00346088
 HG23 1.0      95.99952698       54.17661190       67.63909817
 H000 1.0      98.76716347       52.10029499       65.79389557
 H000 1.0      94.75411595       51.30633699       65.79415975
 $end 
!comment atoms to be erased:
!polarization points to remove: