 $contrl units=angs local=boys runtyp=makefp 
       mult=1 icharg=0 coord=cart icut=11 $end
 $system timlim=99999 mwords=200 $end
 $scf soscf=.f. dirscf=.t. diis=.t. CONV=1.0d-06 $end
 $basis gbasis=n31 ngauss=6 ndfunc=1 $end
 $DAMP IFTTYP(1)=2,0 IFTFIX(1)=1,1 thrsh=500.0 $end
 $MAKEFP POL=.t. DISP=.f. CHTR=.f. EXREP=.f. $end
 $data
 v_259_3948
 C1
 C    6.0      80.56299210       44.14370060       63.12166691
 O    8.0      80.23622513       44.42330837       61.96293831
 N    7.0      81.80513382       44.40067291       63.57762814
 H    1.0      82.03773499       44.07193661       64.50387478
 CA   6.0      82.66860962       45.49730778       63.04716587
 HA   1.0      82.61966705       45.38592339       61.96397781
 CB   6.0      82.08887100       46.94127560       63.36723328
 HB   1.0      81.06670380       47.03690529       63.00100327
 CG1  6.0      82.18793869       47.17305660       64.90729809
 HG11 1.0      83.19026947       47.19955444       65.33477306
 HG12 1.0      81.66378021       46.31254196       65.32309055
 HG13 1.0      81.68792725       48.09767723       65.19567013
 CG2  6.0      82.94925690       48.02925110       62.65833378
 HG21 1.0      82.55939484       48.93132210       63.12990665
 HG22 1.0      82.78095245       48.03991795       61.58145428
 HG23 1.0      83.99629593       47.90447235       62.93442249
 H000 1.0      79.87762815       43.57825045       63.73361567
 H000 1.0      83.70056579       45.38613570       63.34152302
 $end 
!comment atoms to be erased:
!polarization points to remove: