 $contrl units=angs local=boys runtyp=makefp 
       mult=1 icharg=0 coord=cart icut=11 $end
 $system timlim=99999 mwords=200 $end
 $scf soscf=.f. dirscf=.t. diis=.t. CONV=1.0d-06 $end
 $basis gbasis=n31 ngauss=6 ndfunc=1 $end
 $DAMP IFTTYP(1)=2,0 IFTFIX(1)=1,1 thrsh=500.0 $end
 $MAKEFP POL=.t. DISP=.f. CHTR=.f. EXREP=.f. $end
 $data
 v_261_3986
 C1
 C    6.0      87.26596832       46.80578709       62.03709126
 O    8.0      86.76551819       47.12656021       60.94705582
 N    7.0      88.36452484       47.28604794       62.58634567
 H    1.0      88.58236313       46.90747738       63.49701881
 CA   6.0      89.13621902       48.47401142       62.18593597
 HA   1.0      89.06152725       48.57658386       61.10334873
 CB   6.0      88.65392685       49.80750084       62.79985905
 HB   1.0      88.71036530       49.78201866       63.88809681
 CG1  6.0      89.44747925       51.01634502       62.31309891
 HG11 1.0      89.24562454       51.85611725       62.97803402
 HG12 1.0      89.22309875       51.27156258       61.27742767
 HG13 1.0      90.52387238       50.90098858       62.44021893
 CG2  6.0      87.18618393       50.08165359       62.48087883
 HG21 1.0      87.01879501       51.12010956       62.76669502
 HG22 1.0      86.53007507       49.56723690       63.18301678
 HG23 1.0      86.86243057       49.96666431       61.44643784
 H000 1.0      86.76051341       45.96911965       62.49364556
 H000 1.0      90.18336419       48.38627429       62.43032928
 $end 
!comment atoms to be erased:
!polarization points to remove: