 $contrl units=angs local=boys runtyp=makefp 
       mult=1 icharg=0 coord=cart icut=11 $end
 $system timlim=99999 mwords=200 $end
 $scf soscf=.f. dirscf=.t. diis=.t. CONV=1.0d-06 $end
 $basis gbasis=n31 ngauss=6 ndfunc=1 $end
 $DAMP IFTTYP(1)=2,0 IFTFIX(1)=1,1 thrsh=500.0 $end
 $MAKEFP POL=.t. DISP=.f. CHTR=.f. EXREP=.f. $end
 $data
 v_270_4093
 C1
 C    6.0      97.68470764       60.71013451       68.58185291
 O    8.0      96.78087234       60.89844704       69.46966648
 C    6.0      99.84365463       63.08243275       69.88270283
 O    8.0     100.29897690       63.32049370       68.75892162
 C    6.0     100.78855515       65.91107368       71.83952808
 O    8.0     100.77018738       65.30599117       72.96494007
 C    6.0     100.85865021       68.33036900       73.76060009
 O    8.0      99.67859268       68.40867519       73.42559338
 C    6.0     100.93315125       70.36370754       76.83269024
 O    8.0     100.35875320       70.68769932       77.88809299
 C    6.0     104.13593292       71.19438648       78.02441120
 O    8.0     103.82038116       70.22811413       78.68553638
 C    6.0     106.89735413       69.82208729       78.74855518
 O    8.0     107.38170624       69.17693615       79.64663029
 C    6.0     105.88600159       66.91048145       77.67661572
 O    8.0     106.09821320       65.73067665       77.48980999
 C    6.0     103.03462982       65.88128090       77.02972889
 O    8.0     102.85242081       66.54791832       76.05223179
 C    6.0     100.56575775       63.60650063       76.32896900
 O    8.0     100.27538300       63.53338242       77.52552509
 C    6.0      97.72583008       62.42400646       74.15967464
 O    8.0      98.34367752       62.68971920       73.09625149
 N    7.0      96.59059525       61.77839756       74.19845104
 H    1.0      96.09210968       61.71010494       75.07420063
 CA   6.0      95.85910797       61.38047218       72.98091412
 HA   1.0      96.55685425       61.06222630       72.20633030
 CB   6.0      94.96444702       60.13348103       73.18453312
 HB   1.0      94.27770615       60.32073975       74.01000500
 CG2  6.0      94.16879654       59.73480225       72.01434612
 HG21 1.0      94.83440399       59.71258163       71.15146160
 HG22 1.0      93.21149826       60.19825459       71.77580357
 HG23 1.0      93.93043518       58.67264748       72.07019329
 CG1  6.0      95.88035583       58.94159794       73.59933376
 HG11 1.0      95.20490646       58.10761929       73.78994465
 HG12 1.0      96.39612198       59.11473751       74.54385281
 CD   6.0      96.99584961       58.43703747       72.60911465
 HD1  1.0      97.85495758       59.08524990       72.78200626
 HD2  1.0      96.64627075       58.26781750       71.59066677
 HD3  1.0      97.31363297       57.43907928       72.91110516
 H000 1.0      97.78399671       61.03492122       69.60586178
 H000 1.0      95.23096641       62.21255547       72.70339929
 $end 
!comment atoms to be erased:
!polarization points to remove: