 $contrl units=angs local=boys runtyp=makefp 
       mult=1 icharg=0 coord=cart icut=11 $end
 $system timlim=99999 mwords=200 $end
 $scf soscf=.f. dirscf=.t. diis=.t. CONV=1.0d-06 $end
 $basis gbasis=n31 ngauss=6 ndfunc=1 $end
 $DAMP IFTTYP(1)=2,0 IFTFIX(1)=1,1 thrsh=500.0 $end
 $MAKEFP POL=.t. DISP=.f. CHTR=.f. EXREP=.f. $end
 $data
 v_28_405
 C1
 C    6.0      78.59300137       42.85070896       68.90723705
 O    8.0      78.87851238       42.70677567       70.13563633
 N    7.0      77.39144802       43.09418201       68.42300892
 H    1.0      77.31924534       43.32577229       67.44257450
 CA   6.0      76.13459110       43.08828354       69.20080662
 HA   1.0      76.32779598       42.69600868       70.19924641
 CB   6.0      75.64954281       44.50704575       69.52725887
 HB   1.0      76.53014660       45.06529331       69.84504223
 CG1  6.0      75.27842999       45.33509254       68.31052303
 HG11 1.0      75.06604671       46.36474133       68.59830379
 HG12 1.0      74.47961330       44.91299152       67.70076275
 HG13 1.0      76.19579792       45.44354439       67.73191929
 CG2  6.0      74.52143192       44.57893372       70.62968731
 HG21 1.0      73.61582279       44.05075073       70.33135891
 HG22 1.0      74.35926914       45.64246178       70.80494404
 HG23 1.0      74.82009411       44.06530857       71.54351711
 H000 1.0      79.41382657       42.81102925       68.20823032
 H000 1.0      75.35514538       42.53502981       68.70049314
 $end 
!comment atoms to be erased:
!polarization points to remove: