 $contrl units=angs local=boys runtyp=makefp 
       mult=1 icharg=0 coord=cart icut=11 $end
 $system timlim=99999 mwords=200 $end
 $scf soscf=.f. dirscf=.t. diis=.t. CONV=1.0d-06 $end
 $basis gbasis=n31 ngauss=6 ndfunc=1 $end
 $DAMP IFTTYP(1)=2,0 IFTFIX(1)=1,1 thrsh=500.0 $end
 $MAKEFP POL=.t. DISP=.f. CHTR=.f. EXREP=.f. $end
 $data
 v_288_4384
 C1
 C    6.0      77.57103443       61.48053169       68.18505764
 O    8.0      76.69533253       60.68398952       68.49279881
 N    7.0      77.40291119       62.70627499       67.74285793
 H    1.0      78.21647167       63.21043015       67.42028713
 CA   6.0      76.08381748       63.33028316       67.83919811
 HA   1.0      75.56198597       63.03336620       68.74893665
 CB   6.0      76.11832142       64.84148026       68.09043407
 HB   1.0      75.11315823       65.21323681       68.28927517
 CG1  6.0      76.80748463       65.02434254       69.41155910
 HG11 1.0      76.95635319       66.09716892       69.53392506
 HG12 1.0      77.73750782       64.46745396       69.52565670
 HG13 1.0      76.10743999       64.69557285       70.17964840
 CG2  6.0      76.72457218       65.78318596       67.09010601
 HG21 1.0      76.84166431       66.81121349       67.43297100
 HG22 1.0      76.11023426       65.83475113       66.19120121
 HG23 1.0      77.61662960       65.40039062       66.59430981
 H000 1.0      78.58073577       61.11897718       68.30219196
 H000 1.0      75.48688866       63.06080189       66.98187978
 $end 
!comment atoms to be erased:
!polarization points to remove: