 $contrl units=angs local=boys runtyp=makefp 
       mult=1 icharg=0 coord=cart icut=11 $end
 $system timlim=99999 mwords=200 $end
 $scf soscf=.f. dirscf=.t. diis=.t. CONV=1.0d-06 $end
 $basis gbasis=n31 ngauss=6 ndfunc=1 $end
 $DAMP IFTTYP(1)=2,0 IFTFIX(1)=1,1 thrsh=500.0 $end
 $MAKEFP POL=.t. DISP=.f. CHTR=.f. EXREP=.f. $end
 $data
 v_293_4458
 C1
 C    6.0      69.67776775       58.41316223       66.31853580
 O    8.0      68.48873615       58.26461792       66.32476330
 N    7.0      70.54490566       57.35931873       66.21008396
 H    1.0      71.50946140       57.65207767       66.27350330
 CA   6.0      70.16652584       55.93000412       66.14613056
 HA   1.0      69.07867908       55.95105171       66.08096600
 CB   6.0      70.82764149       55.12096405       64.95871067
 HB   1.0      70.72110653       54.03941154       65.04234791
 CG1  6.0      70.17347813       55.39337635       63.57665062
 HG11 1.0      70.47944546       54.70332623       62.79031277
 HG12 1.0      70.29685497       56.45230770       63.34962368
 HG13 1.0      69.10412312       55.22248268       63.70066166
 CG2  6.0      72.38725185       55.27823925       64.86894131
 HG21 1.0      72.84000874       55.18774033       65.85630894
 HG22 1.0      72.52398968       56.31884098       64.57474232
 HG23 1.0      72.70132542       54.52648163       64.14482594
 H000 1.0      70.08609530       59.39788542       66.48445068
 H000 1.0      70.33335420       55.41847767       67.08124975
 $end 
!comment atoms to be erased:
!polarization points to remove: