 $contrl units=angs local=boys runtyp=makefp 
       mult=1 icharg=0 coord=cart icut=11 $end
 $system timlim=99999 mwords=200 $end
 $scf soscf=.f. dirscf=.t. diis=.t. CONV=1.0d-06 $end
 $basis gbasis=n31 ngauss=6 ndfunc=1 $end
 $DAMP IFTTYP(1)=2,0 IFTFIX(1)=1,1 thrsh=500.0 $end
 $MAKEFP POL=.t. DISP=.f. CHTR=.f. EXREP=.f. $end
 $data
 v_307_4681
 C1
 C    6.0      95.49682617       49.90855694       75.23112774
 O    8.0      95.29191971       50.29009342       74.09822941
 N    7.0      96.48876190       50.52417755       75.85340023
 H    1.0      96.71239853       50.19757748       76.78261280
 CA   6.0      97.46332169       51.49877548       75.34699917
 HA   1.0      97.40400314       51.61260605       74.26457882
 CB   6.0      97.32200623       52.85989761       76.16306782
 HB   1.0      97.29013443       52.64821053       77.23184109
 CG1  6.0      98.49899292       53.81737232       75.89899540
 HG11 1.0      99.31934357       53.43920708       76.50899410
 HG12 1.0      98.31638336       54.83603001       76.24118328
 HG13 1.0      98.77412796       53.85819912       74.84508038
 CG2  6.0      96.05428696       53.51465225       75.57848454
 HG21 1.0      96.08369827       53.59938145       74.49218273
 HG22 1.0      96.10172272       54.49152946       76.05968952
 HG23 1.0      95.17568588       52.95786381       75.90427876
 H000 1.0      94.99416560       49.05730209       75.66314212
 H000 1.0      98.44617990       51.08364528       75.50698528
 $end 
!comment atoms to be erased:
!polarization points to remove: