 $contrl units=angs local=boys runtyp=makefp 
       mult=1 icharg=0 coord=cart icut=11 $end
 $system timlim=99999 mwords=200 $end
 $scf soscf=.f. dirscf=.t. diis=.t. CONV=1.0d-06 $end
 $basis gbasis=n31 ngauss=6 ndfunc=1 $end
 $DAMP IFTTYP(1)=2,0 IFTFIX(1)=1,1 thrsh=500.0 $end
 $MAKEFP POL=.t. DISP=.f. CHTR=.f. EXREP=.f. $end
 $data
 v_301_4585
 C1
 C    6.0      76.23587132       45.52427292       78.10102940
 O    8.0      76.37279034       44.94649887       77.01610088
 N    7.0      77.26780415       46.05086327       78.71239185
 H    1.0      77.09574223       46.50414944       79.59840298
 CA   6.0      78.54388714       46.43294811       78.09990406
 HA   1.0      78.42317104       46.16910934       77.04923153
 CB   6.0      78.94934177       47.94764519       78.22893620
 HB   1.0      78.95013332       48.24036598       79.27889347
 CG1  6.0      80.34505844       48.35730076       77.74812222
 HG11 1.0      80.55727005       47.96695232       76.75279140
 HG12 1.0      81.16186142       47.86905766       78.27970028
 HG13 1.0      80.52955627       49.42088604       77.89928913
 CG2  6.0      77.91226864       48.85807991       77.45123386
 HG21 1.0      76.98658466       48.80769253       78.02453518
 HG22 1.0      77.67055035       48.43147755       76.47775173
 HG23 1.0      78.19971561       49.90905762       77.48164654
 H000 1.0      75.29981950       45.50288027       78.63702217
 H000 1.0      79.36219537       45.80406420       78.41425352
 $end 
!comment atoms to be erased:
!polarization points to remove: