 $contrl units=angs local=boys runtyp=makefp 
       mult=1 icharg=0 coord=cart icut=11 $end
 $system timlim=99999 mwords=200 $end
 $scf soscf=.f. dirscf=.t. diis=.t. CONV=1.0d-06 $end
 $basis gbasis=n31 ngauss=6 ndfunc=1 $end
 $DAMP IFTTYP(1)=2,0 IFTFIX(1)=1,1 thrsh=500.0 $end
 $MAKEFP POL=.t. DISP=.f. CHTR=.f. EXREP=.f. $end
 $data
 v_349_5363
 C1
 C    6.0      77.77036190       62.08191395       75.00693798
 O    8.0      78.72649670       61.34183407       74.97530460
 N    7.0      77.83809185       63.39369297       74.93721485
 H    1.0      77.00731754       63.96338463       74.86392498
 CA   6.0      79.10351276       64.14273262       75.05242825
 HA   1.0      79.79433537       63.53353500       74.46955204
 CB   6.0      78.97823811       65.55996895       74.45042133
 HB   1.0      78.22777271       66.16737843       74.95633602
 CG1  6.0      80.25510788       66.37945652       74.37879086
 HG11 1.0      80.99897385       65.83621979       73.79600048
 HG12 1.0      80.63909531       66.61727905       75.37081242
 HG13 1.0      80.12809753       67.31925488       73.84145260
 CG2  6.0      78.56236935       65.38426876       73.03263187
 HG21 1.0      77.60636806       64.86435890       72.97074795
 HG22 1.0      79.30972576       64.81168747       72.48334408
 HG23 1.0      78.39757442       66.34316444       72.54122257
 H000 1.0      76.76959616       61.70464839       75.14863322
 H000 1.0      79.56368253       64.08984575       76.02679248
 $end 
!comment atoms to be erased:
!polarization points to remove: