 $contrl units=angs local=boys runtyp=makefp 
       mult=1 icharg=0 coord=cart icut=11 $end
 $system timlim=99999 mwords=200 $end
 $scf soscf=.f. dirscf=.t. diis=.t. CONV=1.0d-06 $end
 $basis gbasis=n31 ngauss=6 ndfunc=1 $end
 $DAMP IFTTYP(1)=2,0 IFTFIX(1)=1,1 thrsh=500.0 $end
 $MAKEFP POL=.t. DISP=.f. CHTR=.f. EXREP=.f. $end
 $data
 v_344_5300
 C1
 C    6.0      76.46205425       57.46027470       75.79823017
 O    8.0      75.64750195       57.98559666       75.10929585
 N    7.0      77.80583858       57.42120266       75.50995350
 H    1.0      78.30109119       56.98286057       76.27329350
 CA   6.0      78.53790760       57.76009560       74.31892872
 HA   1.0      78.58582020       58.84541512       74.23013210
 CB   6.0      80.06309509       57.30505466       74.38786030
 HB   1.0      80.16977310       56.31556988       74.83242512
 CG1  6.0      80.72902679       57.24629879       73.02898884
 HG11 1.0      80.27021408       56.39290810       72.52968311
 HG12 1.0      81.80349350       57.08117485       73.10867786
 HG13 1.0      80.55189133       58.13864708       72.42862225
 CG2  6.0      80.83665848       58.30838680       75.32267094
 HG21 1.0      81.77381516       57.91502953       75.71651936
 HG22 1.0      80.24728775       58.63594055       76.17909908
 HG23 1.0      80.97740173       59.25796986       74.80636120
 H000 1.0      76.13297117       57.02508366       76.72895676
 H000 1.0      78.02307496       57.41301839       73.43664551
 $end 
!comment atoms to be erased:
!polarization points to remove: