 $contrl units=angs local=boys runtyp=makefp 
       mult=1 icharg=0 coord=cart icut=11 $end
 $system timlim=99999 mwords=200 $end
 $scf soscf=.f. dirscf=.t. diis=.t. CONV=1.0d-06 $end
 $basis gbasis=n31 ngauss=6 ndfunc=1 $end
 $DAMP IFTTYP(1)=2,0 IFTFIX(1)=1,1 thrsh=500.0 $end
 $MAKEFP POL=.t. DISP=.f. CHTR=.f. EXREP=.f. $end
 $data
 v_341_5252
 C1
 C    6.0      80.65279007       55.69435120       78.43867779
 O    8.0      79.95525837       56.38442039       77.67462254
 N    7.0      81.14643097       54.54089165       78.07869434
 H    1.0      81.88295364       54.17524338       78.66515636
 CA   6.0      80.84615707       53.84600163       76.85797215
 HA   1.0      81.32881165       54.26808357       75.97650051
 CB   6.0      81.44020081       52.39785194       76.77186489
 HB   1.0      81.10078812       51.99740410       77.72713184
 CG1  6.0      80.96796036       51.58727169       75.48143864
 HG11 1.0      81.34698868       52.21714020       74.67663288
 HG12 1.0      79.89574909       51.42517090       75.37106037
 HG13 1.0      81.55172348       50.67708015       75.34404278
 CG2  6.0      82.99741745       52.30382442       76.75074100
 HG21 1.0      83.46858978       52.75731564       77.62279034
 HG22 1.0      83.40784073       52.83994198       75.89502811
 HG23 1.0      83.28491211       51.25267029       76.72796726
 H000 1.0      80.72936209       55.97787021       79.47679753
 H000 1.0      79.78379434       53.81585226       76.67245844
 $end 
!comment atoms to be erased:
!polarization points to remove: