 $contrl units=angs local=boys runtyp=makefp 
       mult=1 icharg=0 coord=cart icut=11 $end
 $system timlim=99999 mwords=200 $end
 $scf soscf=.f. dirscf=.t. diis=.t. CONV=1.0d-06 $end
 $basis gbasis=n31 ngauss=6 ndfunc=1 $end
 $DAMP IFTTYP(1)=2,0 IFTFIX(1)=1,1 thrsh=500.0 $end
 $MAKEFP POL=.t. DISP=.f. CHTR=.f. EXREP=.f. $end
 $data
 v_43_605
 C1
 C    6.0      85.85729599       47.88129807       52.49971867
 O    8.0      85.61521530       48.30308437       51.41320229
 N    7.0      86.86096191       48.29129696       53.27955723
 H    1.0      86.94171906       47.93171406       54.21991825
 CA   6.0      87.55077362       49.58261013       53.11591625
 HA   1.0      87.29764938       50.00321388       52.14271069
 CB   6.0      87.08278656       50.57000160       54.26173210
 HB   1.0      87.51752853       50.29281616       55.22207260
 CG1  6.0      87.78162003       51.90545082       53.87010098
 HG11 1.0      87.79121399       52.09293842       52.79639244
 HG12 1.0      88.79165649       52.00412750       54.26784992
 HG13 1.0      87.21143723       52.68460274       54.37597275
 CG2  6.0      85.55721283       50.70704460       54.43353653
 HG21 1.0      85.15552521       49.76949215       54.81791496
 HG22 1.0      85.10156631       50.92527390       53.46769333
 HG23 1.0      85.37107468       51.50812149       55.14887810
 H000 1.0      85.33194582       47.06280187       52.96663416
 H000 1.0      88.61595446       49.41906573       53.16672872
 $end 
!comment atoms to be erased:
!polarization points to remove: