 $contrl units=angs local=boys runtyp=makefp 
       mult=1 icharg=0 coord=cart icut=11 $end
 $system timlim=99999 mwords=200 $end
 $scf soscf=.f. dirscf=.t. diis=.t. CONV=1.0d-06 $end
 $basis gbasis=n31 ngauss=6 ndfunc=1 $end
 $DAMP IFTTYP(1)=2,0 IFTFIX(1)=1,1 thrsh=500.0 $end
 $MAKEFP POL=.t. DISP=.f. CHTR=.f. EXREP=.f. $end
 $data
 v_47_662
 C1
 C    6.0      93.83979797       54.47455883       52.97001839
 O    8.0      94.32083130       53.97987843       53.99375439
 C    6.0      96.60167694       56.60638809       51.75282955
 O    8.0      95.85050583       57.43127346       51.17652416
 C    6.0      99.94121552       58.30582619       51.57115459
 O    8.0     100.57640076       57.61399269       52.38892078
 C    6.0     102.56465912       60.26707649       50.19268036
 O    8.0     101.87833786       61.19617462       49.74119186
 C    6.0     105.03786087       62.01294422       49.40509796
 O    8.0     105.87596893       61.26701832       48.86717319
 C    6.0     106.24542236       64.87709045       48.03385735
 O    8.0     107.41680145       64.72826481       47.70991802
 C    6.0     105.80070496       67.36722469       50.77062607
 O    8.0     105.20215988       68.43802929       50.70204735
 C    6.0     105.40067673       67.86016941       53.98734093
 O    8.0     104.63165283       68.48065853       54.66686249
 C    6.0     106.47047043       70.77759266       54.20976162
 O    8.0     105.82908630       71.48490429       54.94204998
 C    6.0     104.38354492       71.92421436       52.20595837
 O    8.0     103.74853134       72.98064709       52.16363907
 C    6.0     101.76944733       69.49035168       51.27031803
 O    8.0     100.51374435       69.28374767       51.25866890
 C    6.0     102.16674805       66.51244640       49.40396786
 O    8.0     103.20291519       65.94691277       49.77715969
 C    6.0      99.76675034       63.88578892       48.37328434
 O    8.0      99.01468277       64.51675892       47.65820980
 C    6.0      97.84696579       60.88759899       48.26778889
 O    8.0      98.40961456       60.02097607       48.92416000
 C    6.0      94.84794617       59.23239231       48.09588909
 O    8.0      94.70069885       59.57162857       46.91143990
 C    6.0      92.94034958       56.22010231       48.59888554
 O    8.0      93.42168808       55.98427296       49.67561722
 N    7.0      91.79628372       55.74566364       48.19577217
 H    1.0      91.44247055       56.03212357       47.29418755
 CA   6.0      91.00772858       54.71195698       48.91799927
 HA   1.0      91.62422180       54.06517029       49.54225540
 CB   6.0      90.10698318       55.43009281       49.92289543
 HB1  1.0      89.62293625       56.10598564       49.21792984
 HB2  1.0      90.74495316       56.10953808       50.48808575
 HB3  1.0      89.46517944       54.73096371       50.45900345
 H000 1.0      93.80718445       54.95354574       52.00386788
 H000 1.0      90.43479945       54.08009872       48.25735849
 $end 
!comment atoms to be erased:
!polarization points to remove: