 $contrl units=angs local=boys runtyp=makefp 
       mult=1 icharg=0 coord=cart icut=11 $end
 $system timlim=99999 mwords=200 $end
 $scf soscf=.f. dirscf=.t. diis=.t. CONV=1.0d-06 $end
 $basis gbasis=n31 ngauss=6 ndfunc=1 $end
 $DAMP IFTTYP(1)=2,0 IFTFIX(1)=1,1 thrsh=500.0 $end
 $MAKEFP POL=.t. DISP=.f. CHTR=.f. EXREP=.f. $end
 $data
 v_62_912
 C1
 C    6.0      90.20862579       53.83066177       47.99655914
 O    8.0      90.05411148       54.10584450       46.78483486
 N    7.0      89.47132111       52.87890434       48.58333588
 H    1.0      89.57790375       52.78015614       49.58283424
 CA   6.0      88.49040985       52.01519489       47.98815727
 HA   1.0      88.09844971       52.49322891       47.09040642
 CB   6.0      89.18411255       50.64082146       47.52672672
 HB   1.0      90.01724243       50.71894169       46.82824135
 CG1  6.0      89.70977783       49.82419968       48.76741409
 HG11 1.0      88.95109177       49.51323509       49.48559761
 HG12 1.0      90.38637161       50.48631668       49.30769444
 HG13 1.0      90.30086517       48.96252155       48.45722198
 CG2  6.0      88.10108185       49.82984543       46.69896603
 HG21 1.0      87.48937607       50.41410923       46.01155281
 HG22 1.0      87.51462936       49.17853355       47.34700680
 HG23 1.0      88.62617493       49.12802219       46.05102539
 H000 1.0      90.78155492       54.46252003       48.65719992
 H000 1.0      87.73208627       51.81517817       48.72901999
 $end 
!comment atoms to be erased:
!polarization points to remove: