 $contrl units=angs local=boys runtyp=makefp 
       mult=1 icharg=0 coord=cart icut=11 $end
 $system timlim=99999 mwords=200 $end
 $scf soscf=.f. dirscf=.t. diis=.t. CONV=1.0d-06 $end
 $basis gbasis=n31 ngauss=6 ndfunc=1 $end
 $DAMP IFTTYP(1)=2,0 IFTFIX(1)=1,1 thrsh=500.0 $end
 $MAKEFP POL=.t. DISP=.f. CHTR=.f. EXREP=.f. $end
 $data
 v_659_11104
 C1
 C    6.0      68.21744442       66.46005630       75.02255917
 O    8.0      69.08621311       65.95190525       74.39394474
 N    7.0      68.29159260       66.59522057       76.33241177
 H    1.0      67.50481129       66.98952198       76.82799816
 CA   6.0      69.27768230       65.72196960       77.07130909
 HA   1.0      70.04519939       65.33133507       76.40315533
 CB   6.0      70.23270130       66.43246651       78.18948269
 HB   1.0      70.86548328       65.63042641       78.56951237
 CG1  6.0      71.19303226       67.41533279       77.59573460
 HG11 1.0      71.71474934       67.99940586       78.35386753
 HG12 1.0      70.70579052       68.14705372       76.95130825
 HG13 1.0      71.82347775       66.78083420       76.97280407
 CG2  6.0      69.42789555       67.21607685       79.21227932
 HG21 1.0      68.78258228       67.98922062       78.79523754
 HG22 1.0      70.02346516       67.86826611       79.85106945
 HG23 1.0      68.84230137       66.52234077       79.81551647
 H000 1.0      67.29661838       66.73767349       74.53373713
 H000 1.0      68.85255889       64.84433474       77.53279152
 $end 
!comment atoms to be erased:
!polarization points to remove: