 $contrl units=angs local=boys runtyp=makefp 
       mult=1 icharg=0 coord=cart icut=11 $end
 $system timlim=99999 mwords=200 $end
 $scf soscf=.f. dirscf=.t. diis=.t. CONV=1.0d-06 $end
 $basis gbasis=n31 ngauss=6 ndfunc=1 $end
 $DAMP IFTTYP(1)=2,0 IFTFIX(1)=1,1 thrsh=500.0 $end
 $MAKEFP POL=.t. DISP=.f. CHTR=.f. EXREP=.f. $end
 $data
 v_667_11217
 C1
 C    6.0      66.34458065       55.47771931       86.10116959
 O    8.0      65.45745373       54.87226963       85.52787781
 C    6.0      65.19032955       56.08554840       89.41442490
 O    8.0      65.95220089       56.70893669       90.17122269
 C    6.0      62.88185596       57.21165180       91.53066635
 O    8.0      62.49906063       56.12978935       91.98698044
 C    6.0      62.37598896       60.16024113       93.76550674
 O    8.0      63.27386379       60.88544846       93.37038040
 C    6.0      60.02108097       62.42406368       95.76105118
 O    8.0      59.36579227       61.47303104       96.20977402
 C    6.0      58.17315102       65.51199436       96.56530380
 O    8.0      59.01159763       66.38540268       96.43238068
 C    6.0      55.46587467       67.23814964       97.94750214
 O    8.0      54.53249454       66.46701336       98.16024780
 C    6.0      54.04685497       70.04362583       99.42150116
 O    8.0      54.71054554       71.07219219       99.11638260
 C    6.0      51.26528263       71.60926342      100.33828735
 O    8.0      50.46433926       70.88955402      100.87810516
 C    6.0      49.81092453       74.26333904      101.43285751
 O    8.0      49.90212917       75.12597561      100.54786682
 C    6.0      47.30907440       75.71396351      103.08952332
 O    8.0      47.81243324       75.33436298      104.11602020
 C    6.0      45.22642136       76.96720600      105.20242691
 O    8.0      44.73205566       75.85505962      104.88723755
 C    6.0      42.37543583       77.15022564      106.75727844
 O    8.0      42.00205326       78.17096233      106.20145798
 C    6.0      40.20726204       75.13941288      104.98363495
 O    8.0      39.18611050       74.61523533      104.61273193
 C    6.0      41.78335667       73.09209347      102.88717270
 O    8.0      42.71222115       72.64829159      103.51793289
 C    6.0      41.48772240       70.80387592      100.19987106
 O    8.0      41.27155781       71.72045231       99.39393997
 C    6.0      40.65944672       68.84487629       97.95339584
 O    8.0      40.05377769       67.87202358       98.48703384
 C    6.0      39.10405159       68.12071323       95.07602692
 O    8.0      38.29056740       67.24057198       94.98878479
 C    6.0      42.10432529       67.02894211       93.30848694
 O    8.0      42.74443626       68.01024914       93.49792480
 C    6.0      44.08789635       64.57648754       91.49040222
 O    8.0      43.29165459       63.66939068       91.60877228
 C    6.0      46.98507309       63.65817070       89.24144745
 O    8.0      47.34090328       64.66877460       88.53174210
 C    6.0      47.38606453       62.14194298       91.88112259
 O    8.0      47.51616955       63.34257126       92.29991913
 C    6.0      47.52639771       61.29543781       95.18657684
 O    8.0      48.57786179       60.67627430       94.99605179
 C    6.0      48.56133938       60.86542130       98.09930801
 O    8.0      47.64535427       60.06911755       98.26169968
 C    6.0      49.78228092       59.82648849      100.83063126
 O    8.0      49.18005943       58.86050701      101.41826630
 C    6.0      49.55151081       62.91264057      103.09680939
 O    8.0      49.57206726       63.81172657      102.24199295
 C    6.0      48.52071285       64.27995682      106.36358261
 O    8.0      48.55281353       63.27244282      107.01772690
 C    6.0      47.38864422       66.65832996      108.65520477
 O    8.0      46.41904831       66.08794212      109.18416977
 C    6.0      46.48980141       69.98036861      107.38853455
 O    8.0      45.56510925       69.91570950      106.56505585
 C    6.0      48.49023342       71.66390896      105.21911621
 O    8.0      48.27352524       72.20603466      104.14161682
 C    6.0      49.73740578       68.87192249      103.78118515
 O    8.0      49.36160564       67.98651218      104.57296371
 C    6.0      50.63289165       67.10933208      100.87959290
 O    8.0      51.44550323       67.97659397      100.53218842
 C    6.0      52.05314636       64.15398121       99.05200958
 O    8.0      51.31408691       63.27296257       99.38144684
 C    6.0      54.20981884       62.36072063       96.72847748
 O    8.0      55.27764320       62.99333572       96.71354294
 C    6.0      54.68308926       58.86871815       95.40601730
 O    8.0      53.64205837       58.35361481       95.83799362
 C    6.0      54.47647095       56.53625488       93.02032471
 O    8.0      53.71875286       57.43484497       92.63717651
 C    6.0      52.86205769       55.43574810       90.54876328
 O    8.0      53.87004852       55.53457260       89.78576660
 C    6.0      52.11438179       58.06629181       89.01906967
 O    8.0      52.51233578       58.46504211       87.96529770
 C    6.0      54.57401276       59.67907429       89.81967926
 O    8.0      55.13038635       60.38864136       89.00074005
 C    6.0      56.79135799       58.00249577       88.46149445
 O    8.0      57.65390396       58.66611481       87.87635803
 C    6.0      55.65629005       58.61237526       85.68746567
 O    8.0      56.39706135       58.86158943       84.74819183
 C    6.0      56.09889984       61.61067963       85.69051743
 O    8.0      56.57560825       62.21257210       84.72082138
 C    6.0      59.14225101       61.52052879       86.06731415
 O    8.0      59.78818417       62.32450962       85.37405014
 C    6.0      59.64192867       60.10477543       83.43519211
 O    8.0      60.53975582       60.15808582       82.59553909
 C    6.0      58.48960876       62.48623848       81.64861679
 O    8.0      59.22477245       62.73263454       80.69200516
 C    6.0      60.36354542       64.81044769       82.69485474
 O    8.0      60.96429348       65.74522972       82.15345383
 C    6.0      63.05876255       63.42354298       81.93012238
 O    8.0      64.19395924       63.73958111       81.63221359
 N    7.0      62.29903698       62.82651901       81.06958389
 H    1.0      61.35168552       62.75815010       81.41304016
 CA   6.0      62.56711483       62.64236450       79.69384670
 HA   1.0      63.63805294       62.63148785       79.49116230
 CB   6.0      61.96898937       61.31757736       79.29685116
 HB1  1.0      61.52759075       61.31849766       78.30022335
 HB2  1.0      61.23963833       61.01055145       80.04644394
 CG   6.0      63.02013874       60.19360065       79.12708759
 HG1  1.0      63.89965534       60.39399624       78.51521015
 HG2  1.0      62.50010014       59.30954933       78.75814915
 CD   6.0      63.65295887       59.86053944       80.53005219
 HD1  1.0      62.80142307       59.81802464       81.20916367
 HD2  1.0      64.30804729       60.70281982       80.75260162
 CE   6.0      64.48833942       58.57310772       80.71506500
 HE1  1.0      63.84080410       57.69629478       80.71695328
 HE2  1.0      64.98586178       58.61046791       81.68416977
 NZ   7.0      65.48861027       58.47272873       79.64090824
 HZ1  1.0      64.93663311       58.36391449       78.80211353
 HZ2  1.0      66.00433826       57.60841846       79.72507954
 HZ3  1.0      66.05962276       59.30485249       79.60069180
 H000 1.0      65.90612603       56.41353315       85.79141338
 H000 1.0      62.15989241       63.39422249       79.03595737
 $end 
!comment atoms to be erased:
!polarization points to remove: