 $contrl units=angs local=boys runtyp=makefp 
       mult=1 icharg=0 coord=cart icut=11 $end
 $system timlim=99999 mwords=200 $end
 $scf soscf=.f. dirscf=.t. diis=.t. CONV=1.0d-06 $end
 $basis gbasis=n31 ngauss=6 ndfunc=1 $end
 $DAMP IFTTYP(1)=2,0 IFTFIX(1)=1,1 thrsh=500.0 $end
 $MAKEFP POL=.t. DISP=.f. CHTR=.f. EXREP=.f. $end
 $data
 v_67_993
 C1
 C    6.0      75.31919003       44.48066235       50.57563782
 O    8.0      75.56795597       44.49212551       51.78169727
 N    7.0      74.06046391       44.57050323       50.14138699
 H    1.0      73.92141819       44.54290867       49.14138317
 CA   6.0      72.90982723       44.67266560       50.98062038
 HA   1.0      73.11809063       44.14546967       51.91163540
 CB   6.0      72.65225887       46.14581108       51.37536049
 HB   1.0      73.50225925       46.47432804       51.97342396
 CG1  6.0      72.45748997       47.02033997       50.19825935
 HG11 1.0      71.41231060       47.00435638       49.88934994
 HG12 1.0      73.06506634       46.82996750       49.31355000
 HG13 1.0      72.74164677       48.01754475       50.53433418
 CG2  6.0      71.40618801       46.36450291       52.30084896
 HG21 1.0      71.25312328       47.42710590       52.48937130
 HG22 1.0      71.54427052       45.78385353       53.21292400
 HG23 1.0      70.50459385       46.11115932       51.74312592
 H000 1.0      76.12750454       44.42764501       49.86306802
 H000 1.0      72.05551157       44.23682263       50.48653076
 $end 
!comment atoms to be erased:
!polarization points to remove: