 $contrl units=angs local=boys runtyp=makefp 
       mult=1 icharg=0 coord=cart icut=11 $end
 $system timlim=99999 mwords=200 $end
 $scf soscf=.f. dirscf=.t. diis=.t. CONV=1.0d-06 $end
 $basis gbasis=n31 ngauss=6 ndfunc=1 $end
 $DAMP IFTTYP(1)=2,0 IFTFIX(1)=1,1 thrsh=500.0 $end
 $MAKEFP POL=.t. DISP=.f. CHTR=.f. EXREP=.f. $end
 $data
 w_1072_18520
 C1
 C    6.0      61.32153034       43.14965725       70.14840603
 O    8.0      61.61303997       44.33245659       70.33022404
 N    7.0      60.78711987       42.67635345       69.06915188
 H    1.0      60.49354076       41.71059132       69.03439045
 CA   6.0      60.49214840       43.43155384       67.81977177
 HA   1.0      61.35921955       44.07035828       67.65178204
 CB   6.0      60.27964115       42.51676083       66.65025234
 HB1  1.0      59.73307133       41.61190033       66.91594601
 HB2  1.0      61.28690243       42.29573727       66.29717350
 CG   6.0      59.63510990       43.14453125       65.50656796
 CD1  6.0      60.15919209       44.01700497       64.61931705
 HD1  1.0      61.20782375       44.27537918       64.61527348
 NE1  7.0      59.16845798       44.38596249       63.72904301
 HE1  1.0      59.33820248       44.90627766       62.88018703
 CE2  6.0      57.96454906       43.78103256       64.02481556
 CZ2  6.0      56.70930386       43.94257069       63.56797218
 HZ2  1.0      56.45654202       44.66286659       62.80397415
 CH2  6.0      55.61775684       43.26481819       64.10632610
 HH2  1.0      54.60608959       43.49617004       63.80732059
 CZ3  6.0      55.81861496       42.40464687       65.15594959
 HZ3  1.0      55.04556656       41.75058842       65.53146839
 CE3  6.0      57.12100983       42.30937004       65.71623325
 HE3  1.0      57.23228455       41.72467709       66.61742687
 CD2  6.0      58.20808887       43.01775932       65.18369198
 H000 1.0      61.46323035       42.44853684       70.95605086
 H000 1.0      59.69474734       44.12839198       68.02594414
 $end 
!comment atoms to be erased:
!polarization points to remove: