 $contrl units=angs local=boys runtyp=makefp 
       mult=1 icharg=0 coord=cart icut=11 $end
 $system timlim=99999 mwords=200 $end
 $scf soscf=.f. dirscf=.t. diis=.t. CONV=1.0d-06 $end
 $basis gbasis=n31 ngauss=6 ndfunc=1 $end
 $DAMP IFTTYP(1)=2,0 IFTFIX(1)=1,1 thrsh=500.0 $end
 $MAKEFP POL=.t. DISP=.f. CHTR=.f. EXREP=.f. $end
 $data
 w_332_5114
 C1
 C    6.0      93.26574326       49.49637413       81.08882904
 O    8.0      93.42714310       50.23683548       82.06789017
 N    7.0      92.03575134       49.33719635       80.56486130
 H    1.0      91.98583603       48.71172905       79.77340221
 CA   6.0      90.73448181       49.87555981       80.85012436
 HA   1.0      90.61010361       50.14118671       81.89990997
 CB   6.0      90.36367416       51.15620136       80.04365921
 HB1  1.0      89.30284500       51.40017509       79.98695850
 HB2  1.0      90.71033478       50.88006496       79.04783726
 CG   6.0      91.10752106       52.34357834       80.60007095
 CD1  6.0      90.69379807       53.33755493       81.39572144
 HD1  1.0      89.71515656       53.47491741       81.83135986
 NE1  7.0      91.74678802       54.30450439       81.45071030
 HE1  1.0      91.62382126       55.22484779       81.84814453
 CE2  6.0      92.81797409       53.94551754       80.70936203
 CZ2  6.0      93.96839142       54.54438210       80.39302826
 HZ2  1.0      94.26513672       55.46460629       80.87419510
 CH2  6.0      94.82414246       53.97219658       79.51413631
 HH2  1.0      95.72984695       54.49263096       79.23985958
 CZ3  6.0      94.59238052       52.76113033       78.96102428
 HZ3  1.0      95.36447525       52.36358643       78.31897259
 CE3  6.0      93.36278915       52.12700844       79.29835796
 HE3  1.0      93.03104401       51.22385025       78.80780697
 CD2  6.0      92.48992920       52.66864777       80.21562576
 H000 1.0      94.09297207       49.03371836       80.57348349
 H000 1.0      89.96470725       49.14333400       80.66242411
 $end 
!comment atoms to be erased:
!polarization points to remove: