 $contrl units=angs local=boys runtyp=makefp 
       mult=1 icharg=0 coord=cart icut=11 $end
 $system timlim=99999 mwords=200 $end
 $scf soscf=.f. dirscf=.t. diis=.t. CONV=1.0d-06 $end
 $basis gbasis=n31 ngauss=6 ndfunc=1 $end
 $DAMP IFTTYP(1)=2,0 IFTFIX(1)=1,1 thrsh=500.0 $end
 $MAKEFP POL=.t. DISP=.f. CHTR=.f. EXREP=.f. $end
 $data
 w_340_5228
 C1
 C    6.0      79.34484959       54.38254833       81.01299286
 O    8.0      78.33261013       54.76567268       80.42736053
 N    7.0      80.52009583       54.92405891       80.71102142
 H    1.0      81.32810593       54.57383156       81.20553970
 CA   6.0      80.76023102       56.09216690       79.89530087
 HA   1.0      80.06782532       56.92565441       80.01342773
 CB   6.0      82.21151352       56.57773018       80.14791489
 HB1  1.0      82.80847549       55.67480564       80.27622223
 HB2  1.0      82.25193024       57.12835789       81.08774185
 CG   6.0      82.93064117       57.48829365       79.20825481
 CD1  6.0      82.69605637       58.79631996       78.99500370
 HD1  1.0      82.00582504       59.42645073       79.53620434
 NE1  7.0      83.43418121       59.21737671       77.96125889
 HE1  1.0      83.54101181       60.17206192       77.64937878
 CE2  6.0      84.06482697       58.20953369       77.30442524
 CZ2  6.0      84.87026215       58.18248749       76.17795467
 HZ2  1.0      85.05870819       59.09515858       75.63213825
 CH2  6.0      85.36396027       56.94343567       75.78535557
 HH2  1.0      86.04982376       56.92383289       74.95131016
 CZ3  6.0      85.11230469       55.76878071       76.56778812
 HZ3  1.0      85.31087875       54.80645657       76.11957073
 CE3  6.0      84.32550430       55.86321354       77.65175343
 HE3  1.0      84.15258408       54.94792938       78.19833279
 CD2  6.0      83.83016586       57.11149216       78.12194347
 H000 1.0      79.25587665       53.67288892       81.82070954
 H000 1.0      80.68365900       55.80864789       78.85718113
 $end 
!comment atoms to be erased:
!polarization points to remove: