 $contrl units=angs local=boys runtyp=makefp 
       mult=1 icharg=0 coord=cart icut=11 $end
 $system timlim=99999 mwords=200 $end
 $scf soscf=.f. dirscf=.t. diis=.t. CONV=1.0d-06 $end
 $basis gbasis=n31 ngauss=6 ndfunc=1 $end
 $DAMP IFTTYP(1)=2,0 IFTFIX(1)=1,1 thrsh=500.0 $end
 $MAKEFP POL=.t. DISP=.f. CHTR=.f. EXREP=.f. $end
 $data
 y_322_4916
 C1
 C    6.0      89.58171844       56.64525509       83.75579834
 O    8.0      90.35837173       56.38503075       82.78272629
 C    6.0      91.49002075       54.52289104       84.96082306
 O    8.0      90.54460526       53.74905109       84.76682663
 C    6.0      92.79695511       51.68912888       85.14722824
 O    8.0      93.07888031       51.72615051       86.34033203
 N    7.0      92.28338242       50.54306030       84.64958191
 H    1.0      92.15978622       50.57947636       83.64784241
 CA   6.0      91.87068939       49.40579891       85.51704407
 HA   1.0      91.68043137       49.79837418       86.51594162
 CB   6.0      90.61525345       48.80266190       84.88328934
 HB1  1.0      90.80738068       47.73032665       84.84748840
 HB2  1.0      90.46754837       49.04012203       83.82978439
 CG   6.0      89.38848495       49.11939621       85.71636200
 HG1  1.0      88.49275589       48.93082619       85.12454987
 HG2  1.0      89.35716629       50.19641876       85.88111877
 CD   6.0      89.33811188       48.34946156       86.95663452
 HD1  1.0      88.45241547       48.62276077       87.53017426
 HD2  1.0      90.20801544       48.54742050       87.58287430
 NE   7.0      89.28968430       46.88707352       86.94866180
 HE   1.0      88.87672424       46.45627975       86.13380432
 CZ   6.0      89.59390640       46.00939751       87.84742355
 NH1  7.0      90.03038406       46.34553432       89.02559280
 HH11 1.0      90.29096603       47.31355190       89.14861679
 HH12 1.0      90.31518936       45.62470436       89.67319489
 NH2  7.0      89.50536728       44.70441818       87.66956329
 HH21 1.0      89.52133179       44.35976982       86.72031403
 HH22 1.0      89.54456329       44.05554295       88.44255447
 H000 1.0      90.31606517       55.86080724       83.85231446
 H000 1.0      92.68951178       48.70976703       85.61195676
 $end 
!comment atoms to be erased:
!polarization points to remove: