 $contrl units=angs local=boys runtyp=makefp 
       mult=1 icharg=0 coord=cart icut=11 $end
 $system timlim=99999 mwords=200 $end
 $scf soscf=.f. dirscf=.t. diis=.t. CONV=1.0d-06 $end
 $basis gbasis=n31 ngauss=6 ndfunc=1 $end
 $DAMP IFTTYP(1)=2,0 IFTFIX(1)=1,1 thrsh=500.0 $end
 $MAKEFP POL=.t. DISP=.f. CHTR=.f. EXREP=.f. $end
 $data
 y_337_5173
 C1
 C    6.0      83.54232788       54.28624630       83.55772018
 O    8.0      82.92074203       55.03674984       82.79687881
 N    7.0      84.36849594       53.29408646       83.05265427
 H    1.0      84.87548828       52.71432877       83.70605469
 CA   6.0      84.52337265       53.12304974       81.59421921
 HA   1.0      84.62709427       54.12199497       81.17059708
 CB   6.0      85.89429855       52.46283054       81.35608673
 HB1  1.0      86.11944199       51.53440952       81.88093185
 HB2  1.0      86.72500610       53.03914547       81.76338196
 CG   6.0      86.13828659       52.36338615       79.78921413
 CD1  6.0      86.70860291       53.47549915       79.15446758
 HD1  1.0      86.86346054       54.39417839       79.70077038
 CE1  6.0      87.08349228       53.33199978       77.83162594
 HE1  1.0      87.64232635       54.10479069       77.32477665
 CZ   6.0      86.72574997       52.18274593       77.08105564
 OH   8.0      87.07584381       52.15739250       75.76936245
 HH   1.0      87.29106903       52.99502373       75.35264492
 CE2  6.0      86.03908539       51.11470699       77.76978016
 HE2  1.0      85.73654175       50.23844242       77.21568584
 CD2  6.0      85.82695007       51.12283230       79.10082340
 HD2  1.0      85.41851044       50.24169922       79.57324505
 H000 1.0      83.36008195       54.36460697       84.61818467
 H000 1.0      83.63088439       52.68645687       81.17375486
 $end 
!comment atoms to be erased:
!polarization points to remove: