 $contrl units=angs local=boys runtyp=makefp 
       mult=1 icharg=0 coord=cart icut=11 $end
 $system timlim=99999 mwords=200 $end
 $scf soscf=.f. dirscf=.t. diis=.t. CONV=1.0d-06 $end
 $basis gbasis=n31 ngauss=6 ndfunc=1 $end
 $DAMP IFTTYP(1)=2,0 IFTFIX(1)=1,1 thrsh=500.0 $end
 $MAKEFP POL=.t. DISP=.f. CHTR=.f. EXREP=.f. $end
 $data
 y_863_15281
 C1
 C    6.0      62.37510204       54.13906574       49.79278564
 O    8.0      61.33547306       54.77704048       49.72648621
 N    7.0      63.51723194       54.74534512       49.89187241
 H    1.0      64.34353352       54.16654587       49.94009018
 CA   6.0      63.73275280       56.22698307       49.97708797
 HA   1.0      63.06342602       56.53769970       50.77930927
 CB   6.0      65.08875370       56.46135330       50.60884953
 HB1  1.0      65.23011684       57.53785133       50.70516109
 HB2  1.0      65.81426144       56.10222816       49.87894058
 CG   6.0      65.38221836       55.80427647       51.98523521
 CD1  6.0      66.35242939       54.77422714       52.06345081
 HD1  1.0      66.71499729       54.31139946       51.15750790
 CE1  6.0      66.70266628       54.26735878       53.34004402
 HE1  1.0      67.35271931       53.40794086       53.41233730
 CZ   6.0      66.05853558       54.71400738       54.47487354
 OH   8.0      66.45743847       54.25073147       55.68294048
 HH   1.0      65.94963551       54.61692333       56.41070366
 CE2  6.0      65.00078678       55.67862988       54.38685894
 HE2  1.0      64.45456982       56.01487160       55.25576115
 CD2  6.0      64.74954128       56.24345779       53.13110828
 HD2  1.0      63.97418499       56.97183609       52.94485092
 H000 1.0      62.31089819       53.06679186       49.69255848
 H000 1.0      63.50980237       56.78058636       49.07833583
 $end 
!comment atoms to be erased:
!polarization points to remove: