 $contrl units=angs local=boys runtyp=makefp 
       mult=1 icharg=0 coord=cart icut=11 $end
 $system timlim=99999 mwords=200 $end
 $scf soscf=.f. dirscf=.t. diis=.t. CONV=1.0d-06 $end
 $basis gbasis=n31 ngauss=6 ndfunc=1 $end
 $DAMP IFTTYP(1)=2,0 IFTFIX(1)=1,1 thrsh=500.0 $end
 $MAKEFP POL=.t. DISP=.f. CHTR=.f. EXREP=.f. $end
 $data
 y_8_96
 C1
 C    6.0      89.05342102       46.55499458       71.32633686
 O    8.0      89.19197083       46.34913445       70.10179996
 N    7.0      89.75971222       47.49552250       71.97782040
 H    1.0      89.68229294       47.46876717       72.98449039
 CA   6.0      90.71687698       48.47747803       71.35310650
 HA   1.0      90.67378998       48.36833000       70.26943684
 CB   6.0      90.28785706       49.90600109       71.70629978
 HB1  1.0      90.88026047       50.60009956       71.11017704
 HB2  1.0      90.57144165       50.08446693       72.74351597
 CG   6.0      88.83329391       50.32103539       71.70003414
 CD1  6.0      87.97828674       49.81608391       70.67402363
 HD1  1.0      88.38573456       49.14237499       69.93476391
 CE1  6.0      86.64577484       50.16891479       70.52832127
 HE1  1.0      86.02426529       49.72960472       69.76207256
 CZ   6.0      86.13462448       51.10438347       71.44977093
 OH   8.0      84.93543625       51.53893471       71.30004406
 HH   1.0      84.35792923       51.16345882       70.63137531
 CE2  6.0      86.99121475       51.61555290       72.48246670
 HE2  1.0      86.55906677       52.31792450       73.17984104
 CD2  6.0      88.30013275       51.18107319       72.64950275
 HD2  1.0      88.85894775       51.51585102       73.51093769
 H000 1.0      88.35891270       45.92342397       71.85804698
 H000 1.0      91.72381038       48.33797261       71.71444051
 $end 
!comment atoms to be erased:
!polarization points to remove: