 $contrl units=angs local=boys runtyp=makefp 
       mult=1 icharg=-1 coord=cart icut=11 $end
 $system timlim=99999   mwords=200 $end
 $scf soscf=.f. dirscf=.t. diis=.t. CONV=1.0d-06  $end
 $basis gbasis=n31 ngauss=6 ndfunc=1 $end
 $DAMP IFTTYP(1)=2,0 IFTFIX(1)=1,1 thrsh=500.0 $end
 $MAKEFP  POL=.t. DISP=.f. CHTR=.f.  EXREP=.f. $end
 $data
 a_100
 C1
 C1491   6.0    94.2954349500     87.9610157000     76.7053699500 
 O1492   8.0    94.8458004000     87.8096103700     77.7980566000 
 N1493   7.0    94.2362117800     89.0916538200     75.9749651000 
 H1494   1.0    93.8467121100     89.0480327600     75.0441122100 
 C1495   6.0    94.8762512200     90.3476905800     76.3691234600 
 H1496   1.0    95.1698875400     90.3347683000     77.4187517200 
 C1497   6.0    96.0685920700     90.6811618800     75.4681158100 
 H1498   1.0    95.7724952700     91.0274219500     74.4779014600 
 H1499   1.0    96.6159439100     89.7428226500     75.3784275100 
 C1500   6.0    97.0863151600     91.5884208700     76.1671114000 
 O1501   8.0    97.4476814300     92.6399707800     75.5536270100 
 O1502   8.0    97.5374794000     91.2969780000     77.3003053700 
  H000    1.0    94.1662990978388  91.1500457551588  76.24210748960768 
  H000    1.0    93.70407961247349  87.14462371984528  76.32099786579258 
 $end 
 $comment Atoms to be erased:  $end

