 $contrl units=angs local=boys runtyp=makefp 
       mult=1 icharg=-1 coord=cart icut=11 $end
 $system timlim=99999   mwords=200 $end
 $scf soscf=.f. dirscf=.t. diis=.t. CONV=1.0d-06  $end
 $basis gbasis=n31 ngauss=6 ndfunc=1 $end
 $DAMP IFTTYP(1)=2,0 IFTFIX(1)=1,1 thrsh=500.0 $end
 $MAKEFP  POL=.t. DISP=.f. CHTR=.f.  EXREP=.f. $end
 $data
 a_139
 C1
 C2128   6.0    62.0916777000     91.7910770700     81.1825394700 
 O2129   8.0    61.5094557200     92.1374985100     80.1475731000 
 N2130   7.0    62.8692114600     92.6214035300     81.8827669600 
 H2131   1.0    63.2437799800     92.3005485900     82.7731085100 
 C2132   6.0    63.1386202700     94.0159851500     81.5192250300 
 H2133   1.0    63.1810079400     94.0828060100     80.4311039300 
 C2134   6.0    61.9361633200     94.8524604200     81.9884627000 
 H2135   1.0    61.8249615500     94.7574176200     83.0678817900 
 H2136   1.0    61.0318680000     94.4327303100     81.5455491600 
 C2137   6.0    62.0040045900     96.3285796400     81.6078924600 
 O2138   8.0    61.0302452600     96.8487168100     81.0253813100 
 O2139   8.0    62.9737638900     97.0257300500     81.9730514600 
  H000    1.0    64.09571773357824  94.32810846530262  81.9071456157603 
  H000    1.0    62.04803419552881  90.76412658874496  81.51026931784348 
 $end 
 $comment Atoms to be erased:  $end

