 $contrl units=angs local=boys runtyp=makefp 
       mult=1 icharg=-1 coord=cart icut=11 $end
 $system timlim=99999   mwords=200 $end
 $scf soscf=.f. dirscf=.t. diis=.t. CONV=1.0d-06  $end
 $basis gbasis=n31 ngauss=6 ndfunc=1 $end
 $DAMP IFTTYP(1)=2,0 IFTFIX(1)=1,1 thrsh=500.0 $end
 $MAKEFP  POL=.t. DISP=.f. CHTR=.f.  EXREP=.f. $end
 $data
 a_147
 C1
 C2266   6.0    84.7008323700    104.6300411200     75.6063509000 
 O2267   8.0    85.1769638100    104.8039627100     74.4658231700 
 N2268   7.0    85.3327274300    105.0029754600     76.7117404900 
 H2269   1.0    85.0041580200    104.5209693900     77.5362539300 
 C2270   6.0    86.6677284200    105.7153987900     76.7125320400 
 H2271   1.0    86.4224433900    106.7402267500     76.4338302600 
 C2272   6.0    87.1858406100    105.8981514000     78.1808042500 
 H2273   1.0    87.6343345600    104.9389648400     78.4394693400 
 H2274   1.0    86.3338661200    105.9880256700     78.8547277500 
 C2275   6.0    88.1886100800    106.9985199000     78.1885671600 
 O2276   8.0    89.3347644800    106.8050384500     78.6743021000 
 O2277   8.0    87.8248214700    108.1485748300     77.8749513600 
  H000    1.0    87.43659472976603  105.27999371584846  76.09349575777587 
  H000    1.0    83.70092622278621  104.24478368722428  75.73166373595525 
 $end 
 $comment Atoms to be erased:  $end

