 $contrl units=angs local=boys runtyp=makefp 
       mult=1 icharg=0 coord=cart icut=11 $end
 $system timlim=99999   mwords=200 $end
 $scf soscf=.f. dirscf=.t. diis=.t. CONV=1.0d-06  $end
 $basis gbasis=n31 ngauss=6 ndfunc=1 $end
 $DAMP IFTTYP(1)=2,0 IFTFIX(1)=1,1 thrsh=500.0 $end
 $MAKEFP  POL=.t. DISP=.f. CHTR=.f.  EXREP=.f. $end
 $data
 a_149
 C1
 C2292   6.0    88.0106735200    103.1255245200     73.2745218300 
 O2293   8.0    86.8135070800    102.9846763600     73.0284500100 
 N2294   7.0    88.9173507700    103.1624984700     72.2780036900 
 H2295   1.0    89.8545551300    103.4098720600     72.5618457800 
 C2296   6.0    88.6614227300    103.2219123800     70.8219099000 
 H2297   1.0    88.1706428500    104.1569614400     70.5518388700 
 C2298   6.0    89.9874019600    103.1970214800     69.9977207200 
 H2299   1.0    89.6782779700    103.3168125200     68.9593601200 
 H2300   1.0    90.5865478500    102.2900867500     69.9166441000 
 C2301   6.0    90.8706569700    104.3527221700     70.4453229900 
 O2302   8.0    91.8764686600    104.0697479200     71.0793066000 
 N2303   7.0    90.4884147600    105.5822753900     70.0437355000 
 H2304   1.0    91.0386848400    106.4173221600     70.1851224900 
 H2305   1.0    89.6089935300    105.7482338000     69.5755767800 
  H000    1.0    88.06287236340906  102.38960910491043  70.48583309846647 
  H000    1.0    88.36417860458405  103.1079816925227  74.29367113406556 
 $end 
 $comment Atoms to be erased:  $end

