 $contrl units=angs local=boys runtyp=makefp 
       mult=1 icharg=0 coord=cart icut=11 $end
 $system timlim=99999   mwords=200 $end
 $scf soscf=.f. dirscf=.t. diis=.t. CONV=1.0d-06  $end
 $basis gbasis=n31 ngauss=6 ndfunc=1 $end
 $DAMP IFTTYP(1)=2,0 IFTFIX(1)=1,1 thrsh=500.0 $end
 $MAKEFP  POL=.t. DISP=.f. CHTR=.f.  EXREP=.f. $end
 $data
 a_148
 C1
 C2278   6.0    87.7263450600    105.1159095800     75.8602094700 
 O2279   8.0    88.6696815500    105.8767700200     75.4553794900 
 N2280   7.0    87.6512146000    103.8055515300     75.6716537500 
 H2281   1.0    86.8333816500    103.3563613900     76.0582780800 
 C2282   6.0    88.5249328600    103.1000042000     74.7571229900 
 H2283   1.0    89.5207786600    103.5431575800     74.7571134600 
 C2284   6.0    88.8382625600    101.6261673000     75.2430963500 
 H2285   1.0    87.8932380700    101.0915374800     75.1472091700 
 H2286   1.0    89.3387985200    101.7177581800     76.2070369700 
 C2287   6.0    89.9157142600    100.9937858600     74.3259763700 
 O2288   8.0    89.5989990200    100.2729892700     73.4365081800 
 N2289   7.0    91.2174701700    101.2997531900     74.4735002500 
 H2290   1.0    91.9111537900    100.8678913100     73.8798618300 
 H2291   1.0    91.5129470800    101.8593215900     75.2606964100 
  H000    1.0    88.17142777541595  103.1175470274773  73.73797368593443 
  H000    1.0    86.95747875023397  105.55131465415153  76.47924575222413 
 $end 
 $comment Atoms to be erased:  $end

