 $contrl units=angs local=boys runtyp=makefp 
       mult=1 icharg=-1 coord=cart icut=11 $end
 $system timlim=99999   mwords=200 $end
 $scf soscf=.f. dirscf=.t. diis=.t. CONV=1.0d-06  $end
 $basis gbasis=n31 ngauss=6 ndfunc=1 $end
 $DAMP IFTTYP(1)=2,0 IFTFIX(1)=1,1 thrsh=500.0 $end
 $MAKEFP  POL=.t. DISP=.f. CHTR=.f.  EXREP=.f. $end
 $data
 a_150
 C1
 C2306   6.0    87.8225994100    102.0555019400     70.3509235400 
 O2307   8.0    86.8070125600    102.1694564800     69.6838998800 
 N2308   7.0    88.1682395900    100.8115005500     70.7761240000 
 H2309   1.0    88.8226890600    100.7088375100     71.5385246300 
 C2310   6.0    87.4330520600     99.6219444300     70.2466154100 
 H2311   1.0    87.3218345600     99.7876453400     69.1750431100 
 C2312   6.0    88.1197929400     98.2579612700     70.5557107900 
 H2313   1.0    87.5123691600     97.4803638500     70.0925874700 
 H2314   1.0    88.1886291500     98.1872844700     71.6412353500 
 C2315   6.0    89.5205879200     98.1878089900     69.9884843800 
 O2316   8.0    89.6500968900     97.6934242200     68.8492775000 
 O2317   8.0    90.4741096500     98.5776042900     70.6909894900 
  H000    1.0    86.40856090369527  99.63200099590428  70.58463262218841 
  H000    1.0    88.42114977659094  102.88780521508957  70.68700034153352 
 $end 
 $comment Atoms to be erased:  $end

