 $contrl units=angs local=boys runtyp=makefp 
       mult=1 icharg=-1 coord=cart icut=11 $end
 $system timlim=99999   mwords=200 $end
 $scf soscf=.f. dirscf=.t. diis=.t. CONV=1.0d-06  $end
 $basis gbasis=n31 ngauss=6 ndfunc=1 $end
 $DAMP IFTTYP(1)=2,0 IFTFIX(1)=1,1 thrsh=500.0 $end
 $MAKEFP  POL=.t. DISP=.f. CHTR=.f.  EXREP=.f. $end
 $data
 a_153
 C1
 C2356   6.0    83.0443000800    103.0377483400     69.2838382700 
 O2357   8.0    81.9920349100    103.2782173200     68.7315511700 
 N2358   7.0    84.0424537700    102.3456573500     68.6533594100 
 H2359   1.0    84.9553775800    102.2541427600     69.0756225600 
 C2360   6.0    83.8984394100    101.7368888900     67.3660659800 
 H2361   1.0    83.7786483800    102.4696540800     66.5680646900 
 C2362   6.0    85.2248382600    101.1103916200     66.9186830500 
 H2363   1.0    85.4427909900    100.2440166500     67.5431823700 
 H2364   1.0    86.0064125100    101.8486785900     67.0980882600 
 C2365   6.0    85.2080917400    100.7159996000     65.4017019300 
 O2366   8.0    85.1461029100    101.5961074800     64.5162439300 
 O2367   8.0    85.0545311000     99.4722747800     65.1359701200 
  H000    1.0    83.1186361879963  100.99741996250336  67.27103156613 
  H000    1.0    83.16617951670165  103.29655944100487  70.3240791634982 
 $end 
 $comment Atoms to be erased:  $end

