 $contrl units=angs local=boys runtyp=makefp 
       mult=1 icharg=0 coord=cart icut=11 $end
 $system timlim=99999   mwords=200 $end
 $scf soscf=.f. dirscf=.t. diis=.t. CONV=1.0d-06  $end
 $basis gbasis=n31 ngauss=6 ndfunc=1 $end
 $DAMP IFTTYP(1)=2,0 IFTFIX(1)=1,1 thrsh=500.0 $end
 $MAKEFP  POL=.t. DISP=.f. CHTR=.f.  EXREP=.f. $end
 $data
 a_161
 C1
 C2480   6.0    72.6859188100    100.3272151900     62.9806757000 
 O2481   8.0    71.7471599600    100.3505992900     62.2146701800 
 N2482   7.0    73.1483030300     99.1784477200     63.5033989000 
 H2483   1.0    73.9392375900     99.2657947500     64.1254043600 
 C2484   6.0    72.4173975000     97.9041576400     63.2082843800 
 H2485   1.0    72.1427869800     97.8557586700     62.1545553200 
 C2486   6.0    73.3675193800     96.7128181500     63.5117197000 
 H2487   1.0    74.2068004600     96.7270755800     62.8163766900 
 H2488   1.0    72.8483915300     95.7744693800     63.3165407200 
 H2489   1.0    73.7082338300     96.6660022700     64.5460367200 
  H000    1.0    71.46833156261266  97.90692581403826  63.72131954770643 
  H000    1.0    73.15545062493086  101.25647943510401  63.26342424047191 
 $end 
 $comment Atoms to be erased:  $end

