 $contrl units=angs local=boys runtyp=makefp 
       mult=1 icharg=0 coord=cart icut=11 $end
 $system timlim=99999   mwords=200 $end
 $scf soscf=.f. dirscf=.t. diis=.t. CONV=1.0d-06  $end
 $basis gbasis=n31 ngauss=6 ndfunc=1 $end
 $DAMP IFTTYP(1)=2,0 IFTFIX(1)=1,1 thrsh=500.0 $end
 $MAKEFP  POL=.t. DISP=.f. CHTR=.f.  EXREP=.f. $end
 $data
 a_169
 C1
 C2578   6.0    65.3551816900     93.3419799800     64.7090053600 
 O2579   8.0    66.1309099200     92.4997329700     65.1114034700 
 N2580   7.0    64.1905498500     93.6427116400     65.2635288200 
 H2581   1.0    63.6052799200     94.3443393700     64.8330831500 
 C2582   6.0    63.6391115200     93.1397628800     66.4569234800 
 H2583   1.0    64.4379520400     93.0796623200     67.1960687600 
 C2584   6.0    62.4930238700     94.1445636700     66.8944883300 
 H2585   1.0    62.0336532600     93.6882972700     67.7713632600 
 H2586   1.0    61.7512369200     94.3115806600     66.1134958300 
 C2587   6.0    63.0245685600     95.5594730400     67.1913814500 
 O2588   8.0    63.7148761700     96.2331295000     66.4107275000 
 N2589   7.0    62.6241302500     96.1581039400     68.3277797700 
 H2590   1.0    62.9910659800     97.0552825900     68.6115503300 
 H2591   1.0    61.9499111200     95.6337928800     68.8668775600 
  H000    1.0    63.18315871793616  92.17059496197206  66.32746503664653 
  H000    1.0    65.55813490589333  93.94828287004285  63.84001416482928 
 $end 
 $comment Atoms to be erased:  $end

