 $contrl units=angs local=boys runtyp=makefp 
       mult=1 icharg=1 coord=cart icut=11 $end
 $system timlim=99999   mwords=200 $end
 $scf soscf=.f. dirscf=.t. diis=.t. CONV=1.0d-06  $end
 $basis gbasis=n31 ngauss=6 ndfunc=1 $end
 $DAMP IFTTYP(1)=2,0 IFTFIX(1)=1,1 thrsh=500.0 $end
 $MAKEFP  POL=.t. DISP=.f. CHTR=.f.  EXREP=.f. $end
 $data
 a_173
 C1
 C2647   6.0    67.8316927000     88.3073711400     67.2716713000 
 O2648   8.0    68.8445472700     87.8828525500     67.7939891800 
 N2649   7.0    66.7326307300     87.5803375200     67.0814847900 
 H2650   1.0    66.0087108600     87.9547882100     66.4849758100 
 C2651   6.0    66.6507959400     86.1235046400     67.5191736200 
 H2652   1.0    66.9093990300     86.1476421400     68.5777759600 
 C2653   6.0    65.2168273900     85.5776691400     67.4464130400 
 H2654   1.0    65.2365636800     84.4903278400     67.5198888800 
 H2655   1.0    64.7294139900     85.7594776200     66.4885664000 
 C2656   6.0    64.2583036400     86.1047554000     68.5560131100 
 H2657   1.0    64.1124343900     87.1584034000     68.3180093800 
 H2658   1.0    64.7227287300     86.0398101800     69.5399761200 
 C2659   6.0    62.8044414500     85.5073261300     68.4924650200 
 H2660   1.0    62.2110939000     85.9724426300     69.2796754800 
 H2661   1.0    62.6874399200     84.4427681000     68.6953115500 
 N2662   7.0    62.0488786700     85.8035278300     67.2090292000 
 H2663   1.0    62.5763273200     86.1554718000     66.4228773100 
 C2664   6.0    60.7294082600     85.4639053300     67.0707798000 
 N2665   7.0    60.0706386600     84.8469352700     68.0556535700 
 H2666   1.0    59.1108226800     84.5412349700     67.9822063400 
 H2667   1.0    60.5356168700     84.6809864000     68.9367628100 
 N2668   7.0    60.1567792900     85.6832504300     65.9174490000 
 H2669   1.0    60.6325626400     86.1586761500     65.1639938400 
 H2670   1.0    59.1926145600     85.3953933700     65.8300924300 
  H000    1.0    67.27143489943509  85.46713550403237  66.92932131731702 
  H000    1.0    67.89036092918988  89.28556662768062  66.8204169079272 
 $end 
 $comment Atoms to be erased:  $end

