 $contrl units=angs local=boys runtyp=makefp 
       mult=1 icharg=-1 coord=cart icut=11 $end
 $system timlim=99999   mwords=200 $end
 $scf soscf=.f. dirscf=.t. diis=.t. CONV=1.0d-06  $end
 $basis gbasis=n31 ngauss=6 ndfunc=1 $end
 $DAMP IFTTYP(1)=2,0 IFTFIX(1)=1,1 thrsh=500.0 $end
 $MAKEFP  POL=.t. DISP=.f. CHTR=.f.  EXREP=.f. $end
 $data
 a_174
 C1
 C2671   6.0    67.5158453000     85.2086544000     66.6970348400 
 O2672   8.0    67.8184938400     84.1071987200     67.1265983600 
 N2673   7.0    68.0060386700     85.6789970400     65.5557251000 
 H2674   1.0    67.7591800700     86.6063118000     65.2406883200 
 C2675   6.0    68.9079952200     84.8297596000     64.7080087700 
 H2676   1.0    68.5905075100     83.7979316700     64.8584699600 
 C2677   6.0    68.8012027700     85.1668071700     63.1620073300 
 H2678   1.0    69.2635250100     86.1387062100     62.9894590400 
 H2679   1.0    67.7384090400     85.2203083000     62.9259824800 
 C2680   6.0    69.3552064900     84.0916061400     62.1952247600 
 O2681   8.0    69.3869161600     82.9097938500     62.4924278300 
 O2682   8.0    69.8839664500     84.4501590700     61.0988569300 
  H000    1.0    69.91577361534226  84.9066085067176  65.08538901725426 
  H000    1.0    66.8952063405649  85.86502353596762  67.28688714268299 
 $end 
 $comment Atoms to be erased:  $end

