 $contrl units=angs local=boys runtyp=makefp 
       mult=1 icharg=0 coord=cart icut=11 $end
 $system timlim=99999   mwords=200 $end
 $scf soscf=.f. dirscf=.t. diis=.t. CONV=1.0d-06  $end
 $basis gbasis=n31 ngauss=6 ndfunc=1 $end
 $DAMP IFTTYP(1)=2,0 IFTFIX(1)=1,1 thrsh=500.0 $end
 $MAKEFP  POL=.t. DISP=.f. CHTR=.f.  EXREP=.f. $end
 $data
 a_181
 C1
 C2787   6.0    74.0642166100     75.3386497500     69.1596841800 
 O2788   8.0    74.6085357700     75.4266643500     70.2823066700 
 N2789   7.0    72.8826379800     75.8624076800     68.8846969600 
 H2790   1.0    72.4186182000     75.6581687900     68.0111599000 
 C2791   6.0    72.1927022900     76.6898918200     69.9755048800 
 H2792   1.0    72.4185943600     76.1867523200     70.9156799300 
 C2793   6.0    72.6145505900     78.1896877300     69.9370431900 
 H2794   1.0    72.1272754700     78.7603759800     70.7276058200 
 H2795   1.0    72.3958587600     78.6293792700     68.9639329900 
 H2796   1.0    73.6984825100     78.2365417500     70.0418853800 
  H000    1.0    71.11826355498238  76.7305948033437  69.88682809926985 
  H000    1.0    74.53870110629028  74.7922188890775  68.35954876857787 
 $end 
 $comment Atoms to be erased:  $end

