 $contrl units=angs local=boys runtyp=makefp 
       mult=1 icharg=0 coord=cart icut=11 $end
 $system timlim=99999   mwords=200 $end
 $scf soscf=.f. dirscf=.t. diis=.t. CONV=1.0d-06  $end
 $basis gbasis=n31 ngauss=6 ndfunc=1 $end
 $DAMP IFTTYP(1)=2,0 IFTFIX(1)=1,1 thrsh=500.0 $end
 $MAKEFP  POL=.t. DISP=.f. CHTR=.f.  EXREP=.f. $end
 $data
 a_198
 C1
 C3048   6.0    63.4963226300    100.0847721100     73.2476377500 
 O3049   8.0    63.2638931300    101.0538482700     72.5627040900 
 N3050   7.0    63.3804893500    100.0788497900     74.5697736700 
 H3051   1.0    63.5736227000     99.2173957800     75.0603914300 
 C3052   6.0    62.8443527200    101.1996078500     75.3552389100 
 H3053   1.0    61.8842458700    101.5325164800     74.9609518100 
 C3054   6.0    62.6431846600    100.6701088000     76.7765808100 
 H3055   1.0    63.5517978700    100.3198432900     77.2663164100 
 H3056   1.0    61.9553232200     99.8303604100     76.6776657100 
 C3057   6.0    62.0467662800    101.6110706300     77.7061510100 
 O3058   8.0    61.0502338400    102.2961616500     77.4299383200 
 N3059   7.0    62.5023603400    101.5840530400     78.9487409600 
 H3060   1.0    61.9529867200    102.1636200000     79.5671224600 
 H3061   1.0    63.0691385300    100.8211803400     79.2906427400 
  H000    1.0    63.461439647905614  102.08450704546362  75.3650387506033 
  H000    1.0    63.81902024939554  99.14559996609704  72.82602082653374 
 $end 
 $comment Atoms to be erased:  $end

