 $contrl units=angs local=boys runtyp=makefp 
       mult=1 icharg=0 coord=cart icut=11 $end
 $system timlim=99999   mwords=200 $end
 $scf soscf=.f. dirscf=.t. diis=.t. CONV=1.0d-06  $end
 $basis gbasis=n31 ngauss=6 ndfunc=1 $end
 $DAMP IFTTYP(1)=2,0 IFTFIX(1)=1,1 thrsh=500.0 $end
 $MAKEFP  POL=.t. DISP=.f. CHTR=.f.  EXREP=.f. $end
 $data
 a_201
 C1
 C3088   6.0    70.2072238900    104.9632263200     73.8526392000 
 O3089   8.0    69.6716833100    105.8738231700     73.3463430400 
 N3090   7.0    71.4396715200    105.1437091800     74.3602275800 
 H3091   1.0    71.8351936300    104.4032287600     74.9217796300 
 C3092   6.0    71.9868850700    106.5552902200     74.6958255800 
 H3093   1.0    71.9901943200    107.1936798100     73.8123416900 
 C3094   6.0    71.0929775200    107.3594760900     75.6786346400 
 H3095   1.0    70.1508379000    107.5988674200     75.1855230300 
 H3096   1.0    71.5100479100    108.3570003500     75.8168172800 
 C3097   6.0    70.8178091000    106.5844059000     76.9419670100 
 O3098   8.0    70.0467634200    105.6138038600     76.9422817200 
 N3099   7.0    71.4572906500    106.9340419800     77.9886770200 
 H3100   1.0    71.0570478400    106.7466259000     78.8968610800 
 H3101   1.0    72.1366310100    107.6808357200     77.9589033100 
  H000    1.0    73.01274922577828  106.62650365587609  75.0221234194658 
  H000    1.0    69.7235200928442  104.00041227397767  73.90703266467327 
 $end 
 $comment Atoms to be erased:  $end

