 $contrl units=angs local=boys runtyp=makefp 
       mult=1 icharg=1 coord=cart icut=11 $end
 $system timlim=99999   mwords=200 $end
 $scf soscf=.f. dirscf=.t. diis=.t. CONV=1.0d-06  $end
 $basis gbasis=n31 ngauss=6 ndfunc=1 $end
 $DAMP IFTTYP(1)=2,0 IFTFIX(1)=1,1 thrsh=500.0 $end
 $MAKEFP  POL=.t. DISP=.f. CHTR=.f.  EXREP=.f. $end
 $data
 a_216
 C1
 C3304   6.0    64.3037509900     95.6069850900     77.2808790200 
 O3305   8.0    64.7060251200     95.1612663300     78.3501386600 
 N3306   7.0    63.0979776400     95.3640651700     76.7957305900 
 H3307   1.0    62.9663801200     95.7080650300     75.8552837400 
 C3308   6.0    62.0626735700     94.4286632500     77.3953676200 
 H3309   1.0    62.5708961500     93.8756752000     78.1853151300 
 C3310   6.0    60.8620214500     95.2083492300     77.9322004300 
 H3311   1.0    61.2086296100     95.8190250400     78.7658929800 
 H3312   1.0    60.0490665400     94.5531940500     78.2452344900 
 C3313   6.0    60.1779651600     96.0944461800     76.8660116200 
 H3314   1.0    59.8366165200     95.5157375300     76.0077095000 
 H3315   1.0    60.8685970300     96.8687725100     76.5320158000 
 C3316   6.0    58.9135265400     96.7878341700     77.3921060600 
 H3317   1.0    59.0929317500     97.4221229600     78.2601976400 
 H3318   1.0    58.2617855100     95.9664630900     77.6898908600 
 N3319   7.0    58.3682060200     97.5652694700     76.2814140300 
 H3320   1.0    57.9795455900     96.9841671000     75.5524635300 
 C3321   6.0    58.5192966500     98.8539218900     76.0924673100 
 N3322   7.0    59.0256738700     99.5902633700     77.0012092600 
 H3323   1.0    59.3607616400     99.1897773700     77.8657484100 
 H3324   1.0    59.1537427900    100.5670452100     76.7785024600 
 N3325   7.0    58.0267667800     99.4755840300     75.0312328300 
 H3326   1.0    58.2403469100    100.4540729500     74.9006891300 
 H3327   1.0    57.5455570200     98.8795566600     74.3729829800 
  H000    1.0    61.7386230631262  93.63760462099496  76.73722142494036 
  H000    1.0    64.85969556746393  96.38933197574293  76.78813377470911 
 $end 
 $comment Atoms to be erased:  $end

