 $contrl units=angs local=boys runtyp=makefp 
       mult=1 icharg=1 coord=cart icut=11 $end
 $system timlim=99999   mwords=200 $end
 $scf soscf=.f. dirscf=.t. diis=.t. CONV=1.0d-06  $end
 $basis gbasis=n31 ngauss=6 ndfunc=1 $end
 $DAMP IFTTYP(1)=2,0 IFTFIX(1)=1,1 thrsh=500.0 $end
 $MAKEFP  POL=.t. DISP=.f. CHTR=.f.  EXREP=.f. $end
 $data
 a_214
 C1
 C3256   6.0    69.7341442100     99.8593044300     77.8459310500 
 O3257   8.0    70.0772762300     99.2825603500     78.8405561400 
 N3258   7.0    68.4538888900    100.0362682300     77.4746942500 
 H3259   1.0    68.3476114300    100.2688121800     76.4975929300 
 C3260   6.0    67.2744560200     99.5104599000     78.2079553600 
 H3261   1.0    67.6179122900     98.6643981900     78.8031911800 
 C3262   6.0    66.6897821400    100.4986953700     79.2641210600 
 H3263   1.0    67.4191856400    100.7057380700     80.0471878100 
 H3264   1.0    65.8983135200     99.9128532400     79.7315168400 
 C3265   6.0    66.2427330000    101.8635559100     78.7614679300 
 H3266   1.0    65.3927469300    101.7569541900     78.0874681500 
 H3267   1.0    67.1644401600    102.2734260600     78.3484888100 
 C3268   6.0    65.7159137700    102.6015472400     79.9598360100 
 H3269   1.0    66.6034841500    102.7729129800     80.5689048800 
 H3270   1.0    64.9992656700    101.9133758500     80.4080963100 
 N3271   7.0    65.0398492800    103.8549804700     79.5196580900 
 H3272   1.0    65.3450965900    104.2851257300     78.6583185200 
 C3273   6.0    63.9924383200    104.3820285800     80.1187133800 
 N3274   7.0    63.5826921500    103.9819812800     81.3106727600 
 H3275   1.0    64.1247463200    103.3837413800     81.9176101700 
 H3276   1.0    62.9042911500    104.5558738700     81.7908096300 
 N3277   7.0    63.2392597200    105.2768516500     79.5180368400 
 H3278   1.0    63.5570955300    105.5399894700     78.5961675600 
 H3279   1.0    62.4902296100    105.8446025800     79.8877763700 
  H000    1.0    66.56519148706003  99.01839521422009  77.56084248968929 
  H000    1.0    70.45257785775767  100.25443649080839  77.14474445009174 
 $end 
 $comment Atoms to be erased:  $end

