 $contrl units=angs local=boys runtyp=makefp 
       mult=1 icharg=0 coord=cart icut=11 $end
 $system timlim=99999   mwords=200 $end
 $scf soscf=.f. dirscf=.t. diis=.t. CONV=1.0d-06  $end
 $basis gbasis=n31 ngauss=6 ndfunc=1 $end
 $DAMP IFTTYP(1)=2,0 IFTFIX(1)=1,1 thrsh=500.0 $end
 $MAKEFP  POL=.t. DISP=.f. CHTR=.f.  EXREP=.f. $end
 $data
 a_39
 C1
 C559   6.0    92.0349502600     72.6290512100     76.6186809500 
 O560   8.0    92.0393371600     73.7547969800     76.1679220200 
 N561   7.0    91.1865234400     72.2768211400     77.5849580800 
 H562   1.0    91.1844158200     71.3628578200     78.0148077000 
 C563   6.0    90.1428222700     73.1857204400     78.1074571600 
 H564   1.0    90.3757381400     74.2380714400     77.9449415200 
 C565   6.0    88.8532257100     72.9190826400     77.3179674100 
 H566   1.0    88.2966423000     73.8281345400     77.5459051100 
 H567   1.0    88.2500171700     72.0310592700     77.5067949300 
 H568   1.0    89.0001773800     72.9552745800     76.2385273000 
  H000    1.0    90.01497560363951  73.01672090507371  79.16530085672235 
  H000    1.0    92.6579400065251  71.8304767167813  76.24706091003297 
 $end 
 $comment Atoms to be erased:  $end

