 $contrl units=angs local=boys runtyp=makefp 
       mult=1 icharg=-1 coord=cart icut=11 $end
 $system timlim=99999   mwords=200 $end
 $scf soscf=.f. dirscf=.t. diis=.t. CONV=1.0d-06  $end
 $basis gbasis=n31 ngauss=6 ndfunc=1 $end
 $DAMP IFTTYP(1)=2,0 IFTFIX(1)=1,1 thrsh=500.0 $end
 $MAKEFP  POL=.t. DISP=.f. CHTR=.f.  EXREP=.f. $end
 $data
 a_40
 C1
 C569   6.0    89.9622154200     72.9469776200     79.6018552800 
 O570   8.0    90.0251197800     71.7891693100     80.0382423400 
 N571   7.0    89.8404693600     73.9499855000     80.4614830000 
 H572   1.0    89.7909164400     74.8812007900     80.0735664400 
 C573   6.0    89.8645782500     73.8331031800     81.8932151800 
 H574   1.0    89.1597938500     73.0586147300     82.1957778900 
 C575   6.0    91.1489391300     73.3904171000     82.4713325500 
 H576   1.0    91.5946769700     72.5299167600     81.9723701500 
 H577   1.0    90.9399986300     73.1701564800     83.5181999200 
 C578   6.0    92.3444938700     74.3419361100     82.5213241600 
 O579   8.0    93.1758308400     74.1818141900     81.6157913200 
 O580   8.0    92.4989700300     75.0796794900     83.5088348400 
  H000    1.0    89.57764017707478  74.71327800597292  82.44719867941988 
  H000    1.0    90.09006208636049  73.11597715492628  78.54401158327764 
 $end 
 $comment Atoms to be erased:  $end

