 $contrl units=angs local=boys runtyp=makefp 
       mult=1 icharg=-1 coord=cart icut=11 $end
 $system timlim=99999   mwords=200 $end
 $scf soscf=.f. dirscf=.t. diis=.t. CONV=1.0d-06  $end
 $basis gbasis=n31 ngauss=6 ndfunc=1 $end
 $DAMP IFTTYP(1)=2,0 IFTFIX(1)=1,1 thrsh=500.0 $end
 $MAKEFP  POL=.t. DISP=.f. CHTR=.f.  EXREP=.f. $end
 $data
 a_42
 C1
 C592   6.0    88.1393241900     75.8230972300     86.1380195600 
 O593   8.0    88.3379173300     74.8017597200     86.7818260200 
 N594   7.0    87.6889801000     76.9171428700     86.8071937600 
 H595   1.0    87.4065399200     77.7320671100     86.2816238400 
 C596   6.0    87.4310398100     77.0502853400     88.2560539200 
 H597   1.0    87.0316124000     76.0919761700     88.5880088800 
 C598   6.0    88.6876106300     77.4298095700     88.9479446400 
 H599   1.0    89.1405677800     78.2226944000     88.3527374300 
 H600   1.0    89.3032836900     76.5391922000     88.8219642600 
 C601   6.0    88.5847091700     77.8877067600     90.4148101800 
 O602   8.0    89.0735054000     78.9784622200     90.7668685900 
 O603   8.0    87.9517746000     77.1878719300     91.2353515600 
  H000    1.0    86.67358492153059  77.77568574015926  88.50902674656955 
  H000    1.0    88.14880547629024  75.88345916258126  85.06089122878531 
 $end 
 $comment Atoms to be erased:  $end

