 $contrl units=angs local=boys runtyp=makefp 
       mult=1 icharg=0 coord=cart icut=11 $end
 $system timlim=99999   mwords=200 $end
 $scf soscf=.f. dirscf=.t. diis=.t. CONV=1.0d-06  $end
 $basis gbasis=n31 ngauss=6 ndfunc=1 $end
 $DAMP IFTTYP(1)=2,0 IFTFIX(1)=1,1 thrsh=500.0 $end
 $MAKEFP  POL=.t. DISP=.f. CHTR=.f.  EXREP=.f. $end
 $data
 a_61
 C1
 C901   6.0    79.2042350800     85.7702446000     93.5690689100 
 O902   8.0    79.2492723500     84.6774959600     94.2308807400 
 N903   7.0    79.7370433800     85.9176731100     92.3725128200 
 H904   1.0    79.7099590300     86.7871666000     91.8593406700 
 C905   6.0    80.3609180500     84.8030757900     91.6823387100 
 H906   1.0    80.7934379600     84.1860485100     92.4699401900 
 C907   6.0    79.3232965500     84.0504074100     90.8681869500 
 H908   1.0    79.7353172300     83.0760192900     90.6057167100 
 H909   1.0    79.1848278000     84.7202110300     90.0194931000 
 H910   1.0    78.4026336700     83.8558101700     91.4182853700 
  H000    1.0    81.20654181547417  85.03138822932219  91.0524714407154 
  H000    1.0    78.6894711118903  86.60129448091998  94.0254821571334 
 $end 
 $comment Atoms to be erased:  $end

