 $contrl units=angs local=boys runtyp=makefp 
       mult=1 icharg=-1 coord=cart icut=11 $end
 $system timlim=99999   mwords=200 $end
 $scf soscf=.f. dirscf=.t. diis=.t. CONV=1.0d-06  $end
 $basis gbasis=n31 ngauss=6 ndfunc=1 $end
 $DAMP IFTTYP(1)=2,0 IFTFIX(1)=1,1 thrsh=500.0 $end
 $MAKEFP  POL=.t. DISP=.f. CHTR=.f.  EXREP=.f. $end
 $data
 a_68
 C1
 C1008   6.0    92.7082634000     77.2935485800     75.7184600800 
 O1009   8.0    92.9866409300     78.4510326400     75.3869676600 
 N1010   7.0    93.4850406600     76.2671279900     75.4223966600 
 H1011   1.0    93.1981277500     75.3537654900     75.7441997500 
 C1012   6.0    94.8160743700     76.4786624900     74.8414278000 
 H1013   1.0    95.3111553200     75.5076122300     74.8482561100 
 C1014   6.0    94.5671081500     76.8130970000     73.3055639300 
 H1015   1.0    94.0452194200     77.7687358900     73.2557964300 
 H1016   1.0    93.9323043800     76.1011505100     72.7780580500 
 C1017   6.0    95.9448909800     77.0458221400     72.5620937300 
 O1018   8.0    96.1464786500     78.1713104200     72.0717096300 
 O1019   8.0    96.7240333600     76.0999965700     72.5564956700 
  H000    1.0    95.3959176279693  77.19407709943705  75.40347996162879 
  H000    1.0    91.86813844177232  77.19364226503872  76.38789841352579 
 $end 
 $comment Atoms to be erased:  $end

