 $contrl units=angs local=boys runtyp=makefp 
       mult=1 icharg=0 coord=cart icut=11 $end
 $system timlim=99999   mwords=200 $end
 $scf soscf=.f. dirscf=.t. diis=.t. CONV=1.0d-06  $end
 $basis gbasis=n31 ngauss=6 ndfunc=1 $end
 $DAMP IFTTYP(1)=2,0 IFTFIX(1)=1,1 thrsh=500.0 $end
 $MAKEFP  POL=.t. DISP=.f. CHTR=.f.  EXREP=.f. $end
 $data
 a_72
 C1
 C1067   6.0    91.7704582200     83.4812164300     79.5031595200 
 O1068   8.0    91.8204307600     84.3094348900     78.6074399900 
 N1069   7.0    90.7081413300     83.2945632900     80.2899932900 
 H1070   1.0    90.6897354100     82.5431442300     80.9646225000 
 C1071   6.0    89.5325183900     84.1387462600     80.3682708700 
 H1072   1.0    89.8306179000     85.1727199600     80.1946640000 
 C1073   6.0    88.5872840900     83.7907886500     79.1874742500 
 H1074   1.0    89.0871620200     84.1062831900     78.2716703400 
 H1075   1.0    87.6658725700     84.3664836900     79.0999555600 
 C1076   6.0    88.1077957200     82.3345375100     79.3380498900 
 O1077   8.0    87.3180961600     82.0686245000     80.2576255800 
 N1078   7.0    88.8204765300     81.4017391200     78.6718511600 
 H1079   1.0    88.9500045800     80.4122352600     78.8274812700 
 H1080   1.0    89.3678951300     81.7432975800     77.8948354700 
  H000    1.0    89.0732546112004  84.13946124952922  81.34449582864052 
  H000    1.0    92.60718575775019  82.82362838568716  79.68037095063387 
 $end 
 $comment Atoms to be erased:  $end

