 $contrl units=angs local=boys runtyp=makefp 
       mult=1 icharg=0 coord=cart icut=11 $end
 $system timlim=99999   mwords=200 $end
 $scf soscf=.f. dirscf=.t. diis=.t. CONV=1.0d-06  $end
 $basis gbasis=n31 ngauss=6 ndfunc=1 $end
 $DAMP IFTTYP(1)=2,0 IFTFIX(1)=1,1 thrsh=500.0 $end
 $MAKEFP  POL=.t. DISP=.f. CHTR=.f.  EXREP=.f. $end
 $data
 a_78
 C1
 C1170   6.0    76.3502121000     91.1573886900     91.4834022500 
 O1171   8.0    76.3564443600     92.1193885800     90.7096099900 
 N1172   7.0    75.3002214400     90.8156395000     92.2020912200 
 H1173   1.0    75.4375028600     89.9918556200     92.7700805700 
 C1174   6.0    73.9309644700     91.3998317700     92.0469665500 
 H1175   1.0    74.0749454500     92.4232959700     91.7007255600 
 C1176   6.0    73.1383562100     90.5984306300     90.9943962100 
 H1177   1.0    73.7633943600     90.4975795700     90.1071167000 
 H1178   1.0    72.2281122200     91.1241626700     90.7060241700 
 H1179   1.0    72.7292442300     89.6990203900     91.4546203600 
  H000    1.0    73.42509170089363  91.45255874659429  92.99841360949195 
  H000    1.0    77.27906568294327  90.64429042749335  91.6780817149317 
 $end 
 $comment Atoms to be erased:  $end

