 $contrl units=angs local=boys runtyp=makefp 
       mult=1 icharg=-1 coord=cart icut=11 $end
 $system timlim=99999   mwords=200 $end
 $scf soscf=.f. dirscf=.t. diis=.t. CONV=1.0d-06  $end
 $basis gbasis=n31 ngauss=6 ndfunc=1 $end
 $DAMP IFTTYP(1)=2,0 IFTFIX(1)=1,1 thrsh=500.0 $end
 $MAKEFP  POL=.t. DISP=.f. CHTR=.f.  EXREP=.f. $end
 $data
 a_79
 C1
 C1180   6.0    73.2077693900     91.4752101900     93.4071540800 
 O1181   8.0    73.0171394300     90.4460811600     94.1216850300 
 N1182   7.0    72.6574134800     92.5722312900     93.6959457400 
 H1183   1.0    72.8318309800     93.3567047100     93.0841636700 
 C1184   6.0    71.5783691400     92.6468086200     94.6650314300 
 H1185   1.0    71.8270587900     92.0547294600     95.5457687400 
 C1186   6.0    71.2711525000     94.0662574800     95.1896095300 
 H1187   1.0    70.3778457600     94.0828704800     95.8139610300 
 H1188   1.0    71.0699224500     94.7228431700     94.3431472800 
 C1189   6.0    72.4524974800     94.6350479100     96.0107612600 
 O1190   8.0    72.2767782200     95.7972621900     96.4404869100 
 O1191   8.0    73.4662771200     93.9778900100     96.3878059400 
  H000    1.0    70.70219068116742  92.28811847742709  94.14773887302785 
  H000    1.0    73.71364215910637  91.42248321340571  92.45570702050804 
 $end 
 $comment Atoms to be erased:  $end

