 $contrl units=angs local=boys runtyp=makefp 
       mult=1 icharg=1 coord=cart icut=11 $end
 $system timlim=99999   mwords=200 $end
 $scf soscf=.f. dirscf=.t. diis=.t. CONV=1.0d-06  $end
 $basis gbasis=n31 ngauss=6 ndfunc=1 $end
 $DAMP IFTTYP(1)=2,0 IFTFIX(1)=1,1 thrsh=500.0 $end
 $MAKEFP  POL=.t. DISP=.f. CHTR=.f.  EXREP=.f. $end
 $data
 a_850
 C1
 C15066   6.0    81.6782188400     92.4097442600     62.3025465000 
 O15067   8.0    82.2309017200     91.3743114500     62.0459127400 
 N15068   7.0    82.2920990000     93.5895156900     62.5165081000 
 H15069   1.0    81.7423629800     94.3823719000     62.8152847300 
 C15070   6.0    83.7443924000     93.7640190100     62.3164033900 
 H15071   1.0    84.2936706500     92.8932857500     61.9583272900 
 C15072   6.0    84.1340255700     94.9673175800     61.4641571000 
 H15073   1.0    85.2075195300     95.1562118500     61.4695644400 
 H15074   1.0    83.6842918400     95.8828163100     61.8484449400 
 C15075   6.0    83.5709190400     94.9480915100     60.0478506100 
 H15076   1.0    83.7770557400     95.8936786700     59.5463991200 
 H15077   1.0    82.5064563800     94.8729610400     60.2700614900 
 C15078   6.0    83.9341163600     93.7179946900     59.1390228300 
 H15079   1.0    83.4563541400     93.7862396200     58.1616830800 
 H15080   1.0    83.5776710500     92.7801513700     59.5650291400 
 N15081   7.0    85.3693962100     93.5790157300     58.9113950700 
 H15082   1.0    85.9807109800     94.3220233900     59.2185306500 
 C15083   6.0    86.0439872700     92.5266170500     58.5612201700 
 N15084   7.0    87.3304557800     92.5937843300     58.5715818400 
 H15085   1.0    87.8119087200     93.4648609200     58.7434673300 
 H15086   1.0    87.7477073700     91.7639732400     58.1748437900 
 N15087   7.0    85.4912948600     91.4176940900     58.1054496800 
 H15088   1.0    84.5164871200     91.2598133100     58.3173990200 
 H15089   1.0    86.0723877000     90.6424522400     57.8200674100 
  H000    1.0    84.16941167290607  93.96408406728348  63.28762503829278 
  H000    1.0    80.61899734909802  92.49745836251395  62.48773550893836 
 $end 
 $comment Atoms to be erased:  $end

