 $contrl units=angs local=boys runtyp=makefp 
       mult=1 icharg=-1 coord=cart icut=11 $end
 $system timlim=99999   mwords=200 $end
 $scf soscf=.f. dirscf=.t. diis=.t. CONV=1.0d-06  $end
 $basis gbasis=n31 ngauss=6 ndfunc=1 $end
 $DAMP IFTTYP(1)=2,0 IFTFIX(1)=1,1 thrsh=500.0 $end
 $MAKEFP  POL=.t. DISP=.f. CHTR=.f.  EXREP=.f. $end
 $data
 a_852
 C1
 C15101   6.0    87.7411937700     93.2572078700     64.9201726900 
 O15102   8.0    88.1488418600     92.2413730600     64.3238258400 
 N15103   7.0    88.5566902200     94.1585159300     65.5476427100 
 H15104   1.0    88.1085777300     94.8885345500     66.0827589000 
 C15105   6.0    89.9705982200     93.9210796400     65.7189798400 
 H15106   1.0    90.3223609900     93.1045818300     65.0883483900 
 C15107   6.0    90.7487297100     95.2321434000     65.5881691000 
 H15108   1.0    90.5691719100     96.0177326200     66.3221406900 
 H15109   1.0    90.3675460800     95.7483482400     64.7070789300 
 C15110   6.0    92.2107791900     95.0252723700     65.3852701200 
 O15111   8.0    92.9467296600     95.4818058000     66.2706708900 
 O15112   8.0    92.7317333200     94.3561363200     64.4302320500 
  H000    1.0    90.18881824044806  93.55486913538147  66.71004431246519 
  H000    1.0    86.70021234821594  93.44406504475796  65.13320079927651 
 $end 
 $comment Atoms to be erased:  $end

