 $contrl units=angs local=boys runtyp=makefp 
       mult=1 icharg=1 coord=cart icut=11 $end
 $system timlim=99999   mwords=200 $end
 $scf soscf=.f. dirscf=.t. diis=.t. CONV=1.0d-06  $end
 $basis gbasis=n31 ngauss=6 ndfunc=1 $end
 $DAMP IFTTYP(1)=2,0 IFTFIX(1)=1,1 thrsh=500.0 $end
 $MAKEFP  POL=.t. DISP=.f. CHTR=.f.  EXREP=.f. $end
 $data
 a_855
 C1
 C15139   6.0    89.7004795100     89.3239498100     67.5195121800 
 O15140   8.0    90.3365516700     88.4143924700     68.0086517300 
 N15141   7.0    90.0794410700     90.0107193000     66.4156961400 
 H15142   1.0    89.4858551000     90.7832050300     66.1492061600 
 C15143   6.0    91.1762142200     89.4736099200     65.5713367500 
 H15144   1.0    90.8772945400     88.4468841600     65.3601884800 
 C15145   6.0    91.3005352000     90.2668094600     64.2824363700 
 H15146   1.0    91.8748855600     91.1880207100     64.3804073300 
 H15147   1.0    90.2945137000     90.5478286700     63.9709091200 
 C15148   6.0    91.8959236100     89.4400024400     63.1982851000 
 H15149   1.0    92.9109001200     89.1175556200     63.4305810900 
 H15150   1.0    91.8525409700     90.1040840100     62.3350238800 
 C15151   6.0    91.1061096200     88.1669426000     62.8736639000 
 H15152   1.0    90.0363159200     88.3171844500     63.0188226700 
 H15153   1.0    91.2861442600     87.3801136000     63.6061906800 
 N15154   7.0    91.3857078600     87.7345943500     61.4900064500 
 H15155   1.0    92.1603393600     87.1054267900     61.3344383200 
 C15156   6.0    90.8074951200     88.3048248300     60.4589986800 
 N15157   7.0    91.5069961500     88.2757186900     59.3845129000 
 H15158   1.0    92.4875068700     88.0494403800     59.4710540800 
 H15159   1.0    91.1578750600     88.4361267100     58.4504413600 
 N15160   7.0    89.6176528900     88.9804077100     60.4572868300 
 H15161   1.0    89.1138649000     89.2040634200     61.3036155700 
 H15162   1.0    89.2171096800     89.3325233500     59.5995616900 
  H000    1.0    92.13567473938876  89.36201440737038  66.05187899881398 
  H000    1.0    88.86016245729525  89.64112945545457  68.11717698826875 
 $end 
 $comment Atoms to be erased:  $end

