 $contrl units=angs local=boys runtyp=makefp 
       mult=1 icharg=0 coord=cart icut=11 $end
 $system timlim=99999   mwords=200 $end
 $scf soscf=.f. dirscf=.t. diis=.t. CONV=1.0d-06  $end
 $basis gbasis=n31 ngauss=6 ndfunc=1 $end
 $DAMP IFTTYP(1)=2,0 IFTFIX(1)=1,1 thrsh=500.0 $end
 $MAKEFP  POL=.t. DISP=.f. CHTR=.f.  EXREP=.f. $end
 $data
 a_857
 C1
 C15187   6.0    93.9849948900     89.2200279200     69.4545888900 
 O15188   8.0    95.0318908700     89.0655231500     70.0820446000 
 N15189   7.0    92.7822589900     88.6754131300     69.7797298400 
 H15190   1.0    92.0810985600     88.7197589900     69.0541172000 
 C15191   6.0    92.4866962400     87.7813243900     70.9115409900 
 H15192   1.0    93.4683513600     87.4795150800     71.2767314900 
 C15193   6.0    91.8376445800     88.6455726600     72.0118427300 
 H15194   1.0    91.8050861400     88.0177116400     72.9022550600 
 H15195   1.0    90.9004974400     89.1160965000     71.7143964800 
 C15196   6.0    92.7157211300     89.8080158200     72.5597381600 
 O15197   8.0    93.7715148900     89.5583820300     73.1670808800 
 N15198   7.0    92.3347663900     91.0647487600     72.3151874500 
 H15199   1.0    92.8186702700     91.8204689000     72.7786779400 
 H15200   1.0    91.5256977100     91.2737751000     71.7478847500 
  H000    1.0    91.82212087845478  86.96366967298003  70.67976684959162 
  H000    1.0    94.03897630585165  89.80177362017487  68.54761764091285 
 $end 
 $comment Atoms to be erased:  $end

