 $contrl units=angs local=boys runtyp=makefp 
       mult=1 icharg=0 coord=cart icut=11 $end
 $system timlim=99999   mwords=200 $end
 $scf soscf=.f. dirscf=.t. diis=.t. CONV=1.0d-06  $end
 $basis gbasis=n31 ngauss=6 ndfunc=1 $end
 $DAMP IFTTYP(1)=2,0 IFTFIX(1)=1,1 thrsh=500.0 $end
 $MAKEFP  POL=.t. DISP=.f. CHTR=.f.  EXREP=.f. $end
 $data
 a_853
 C1
 C15113   6.0    90.2767658200     93.4072780600     67.1094656000 
 O15114   8.0    91.2375545500     92.6614093800     67.2685575500 
 N15115   7.0    89.4996261600     93.7723445900     68.1174230600 
 H15116   1.0    88.7426948500     94.4315147400     68.0049943900 
 C15117   6.0    89.5335388200     93.3262443500     69.4795894600 
 H15118   1.0    90.5259323100     93.5442352300     69.8742055900 
 C15119   6.0    88.4204864500     94.1078567500     70.1997566200 
 H15120   1.0    87.3943138100     93.9861297600     69.8529815700 
 H15121   1.0    88.6107444800     95.1669979100     70.0262069700 
 H15122   1.0    88.4332180000     93.8355159800     71.2551069300 
  H000    1.0    89.39016145737962  92.25701025480735  69.49055673703639 
  H000    1.0    90.05854579955194  93.77348856461853  66.11840112753481 
 $end 
 $comment Atoms to be erased:  $end

