 $contrl units=angs local=boys runtyp=makefp 
       mult=1 icharg=1 coord=cart icut=11 $end
 $system timlim=99999   mwords=200 $end
 $scf soscf=.f. dirscf=.t. diis=.t. CONV=1.0d-06  $end
 $basis gbasis=n31 ngauss=6 ndfunc=1 $end
 $DAMP IFTTYP(1)=2,0 IFTFIX(1)=1,1 thrsh=500.0 $end
 $MAKEFP  POL=.t. DISP=.f. CHTR=.f.  EXREP=.f. $end
 $data
 a_856
 C1
 C15163   6.0    92.5510025000     89.3137073500     66.2598943700 
 O15164   8.0    93.3490657800     88.4306335400     65.9572458300 
 N15165   7.0    92.8374862700     90.0848865500     67.2747516600 
 H15166   1.0    92.1679687500     90.8241558100     67.4339532900 
 C15167   6.0    94.0633487700     90.0644302400     68.1381225600 
 H15168   1.0    94.8605442000     89.6245861100     67.5388574600 
 C15169   6.0    94.5116710700     91.5117168400     68.4609794600 
 H15170   1.0    94.5916080500     92.0529460900     67.5182247200 
 H15171   1.0    95.4521465300     91.5274047900     69.0117740600 
 C15172   6.0    93.6655044600     92.3147964500     69.3645811100 
 H15173   1.0    93.9688682600     92.1201133700     70.3932619100 
 H15174   1.0    92.6107692700     92.0404624900     69.3450832400 
 C15175   6.0    93.9826583900     93.8444042200     69.0435552600 
 H15176   1.0    93.5062408400     93.9741897600     68.0718183500 
 H15177   1.0    95.0658321400     93.8873672500     68.9295911800 
 N15178   7.0    93.4953403500     94.7693634000     70.0995540600 
 H15179   1.0    93.7040615100     94.4502544400     71.0348081600 
 C15180   6.0    92.7021026600     95.8117866500     70.0698804900 
 N15181   7.0    92.1371269200     96.2160491900     68.9457368900 
 H15182   1.0    92.3436260200     95.7147121400     68.0936002700 
 H15183   1.0    91.4026641800     96.9084644300     68.9107561100 
 N15184   7.0    92.3962593100     96.5687370300     71.0795640900 
 H15185   1.0    92.7779579200     96.2985801700     71.9747829400 
 H15186   1.0    91.7052936600     97.2969532000     70.9683084500 
  H000    1.0    94.00936735414835  89.48268453982513  69.04509380908715 
  H000    1.0    91.59154198061124  89.42530286262962  65.77935212118602 
 $end 
 $comment Atoms to be erased:  $end

