 $contrl units=angs local=boys runtyp=makefp 
       mult=1 icharg=0 coord=cart icut=11 $end
 $system timlim=99999   mwords=200 $end
 $scf soscf=.f. dirscf=.t. diis=.t. CONV=1.0d-06  $end
 $basis gbasis=n31 ngauss=6 ndfunc=1 $end
 $DAMP IFTTYP(1)=2,0 IFTFIX(1)=1,1 thrsh=500.0 $end
 $MAKEFP  POL=.t. DISP=.f. CHTR=.f.  EXREP=.f. $end
 $data
 a_860
 C1
 C15231   6.0    91.8486213700     80.2420711500     67.9944086100 
 O15232   8.0    92.7580738100     80.3347396900     67.1622276300 
 N15233   7.0    90.6764793400     79.6958541900     67.6609611500 
 H15234   1.0    89.9371337900     79.6667957300     68.3484411200 
 C15235   6.0    90.2903938300     79.3640899700     66.2458133700 
 H15236   1.0    91.0306358300     79.8360347700     65.5997276300 
 C15237   6.0    90.4466247600     77.8134441400     66.0265111900 
 H15238   1.0    89.6631431600     77.2741603900     66.5589046500 
 H15239   1.0    91.3086128200     77.4343109100     66.5754413600 
 C15240   6.0    90.3153419500     77.3915576900     64.5539093000 
 O15241   8.0    89.7954177900     78.0721569100     63.6528492000 
 N15242   7.0    90.8671379100     76.2423038500     64.2606878300 
 H15243   1.0    91.2578201300     75.6136512800     64.9479150800 
 H15244   1.0    90.8436584500     75.8553504900     63.3280515700 
  H000    1.0    89.26301331124397  79.63094388826049  66.05289588611221 
  H000    1.0    92.03684567429494  80.59203898913  68.9974205852263 
 $end 
 $comment Atoms to be erased:  $end

