 $contrl units=angs local=boys runtyp=makefp 
       mult=1 icharg=0 coord=cart icut=11 $end
 $system timlim=99999   mwords=200 $end
 $scf soscf=.f. dirscf=.t. diis=.t. CONV=1.0d-06  $end
 $basis gbasis=n31 ngauss=6 ndfunc=1 $end
 $DAMP IFTTYP(1)=2,0 IFTFIX(1)=1,1 thrsh=500.0 $end
 $MAKEFP  POL=.t. DISP=.f. CHTR=.f.  EXREP=.f. $end
 $data
 c_41
 C1
 C581   6.0    89.4428157800     75.1268482200     82.7075004600 
 O582   8.0    89.3496513400     76.1800193800     82.1366310100 
 N583   7.0    89.1847801200     75.0517749800     84.0170478800 
 H584   1.0    89.3632507300     74.1674900100     84.4712257400 
 C585   6.0    88.1526756300     75.9080982200     84.6212196400 
 H586   1.0    88.2064628600     76.9418430300     84.2797851600 
 C587   6.0    86.7333412200     75.5302143100     84.1430664100 
 H588   1.0    86.4159393300     74.6615219100     84.7199058500 
 H589   1.0    86.7936134300     75.2794456500     83.0840301500 
 S590   16.0    85.5617523200     76.8667697900     84.2947578400 
 H591   1.0    86.1651420600     77.6809120200     83.4241294900 
  H000    1.0    88.14319434370977  75.84773628741874  85.6983479712147 
  H000    1.0    89.72975385292521  74.24667339402707  82.15351696058012 
 $end 
 $comment Atoms to be erased:  $end

