 $contrl units=angs local=boys runtyp=makefp 
       mult=1 icharg=-1 coord=cart icut=11 $end
 $system timlim=99999   mwords=200 $end
 $scf soscf=.f. dirscf=.t. diis=.t. CONV=1.0d-06  $end
 $basis gbasis=n31 ngauss=6 ndfunc=1 $end
 $DAMP IFTTYP(1)=2,0 IFTFIX(1)=1,1 thrsh=500.0 $end
 $MAKEFP  POL=.t. DISP=.f. CHTR=.f.  EXREP=.f. $end
 $data
 g_108
 C1
 C1616   6.0    72.1008062400     97.0302391100     86.4509201000 
 O1617   8.0    72.3252821000     97.2093105300     87.6731491100 
 N1618   7.0    70.7784891100     96.8275928500     86.0480690000 
 H1619   1.0    70.6130600000     96.6339492800     85.0707054100 
 C1620   6.0    69.5387601900     96.9030761700     86.8146896400 
 H1621   1.0    69.6277761500     96.5154361700     87.8295326200 
 C1622   6.0    68.9007902100     98.3361434900     86.8937873800 
 H1623   1.0    67.9839468000     98.2788467400     87.4804878200 
 H1624   1.0    68.7354421600     98.7385082200     85.8943557700 
 C1625   6.0    69.6769428300     99.3995952600     87.7035141000 
 H1626   1.0    70.7420873600     99.2607307400     87.5183486900 
 H1627   1.0    69.5432901400     99.1604423500     88.7585258500 
 C1628   6.0    69.1139602700    100.7749462100     87.5111389200 
 O1629   8.0    67.9184579800    101.0072708100     87.8512954700 
 O1630   8.0    69.9043035500    101.6550254800     87.1522331200 
  H000    1.0    68.86853543638455  96.31781294165853  86.20460388144436 
  H000    1.0    72.85821565796435  96.89265400132403  85.69504960113825 
 $end 
 $comment Atoms to be erased:  $end

