 $contrl units=angs local=boys runtyp=makefp 
       mult=1 icharg=0 coord=cart icut=11 $end
 $system timlim=99999   mwords=200 $end
 $scf soscf=.f. dirscf=.t. diis=.t. CONV=1.0d-06  $end
 $basis gbasis=n31 ngauss=6 ndfunc=1 $end
 $DAMP IFTTYP(1)=2,0 IFTFIX(1)=1,1 thrsh=500.0 $end
 $MAKEFP  POL=.t. DISP=.f. CHTR=.f.  EXREP=.f. $end
 $data
 g_109
 C1
 C1631   6.0    68.5736560800     96.0603141800     85.9361839300 
 O1632   8.0    68.8016986800     95.8528423300     84.7582626300 
 N1633   7.0    67.5051784500     95.5012893700     86.5705871600 
 H1634   1.0    67.4166154900     95.7257747700     87.5513267500 
 C1635   6.0    66.4706039400     94.6150493600     85.9293174700 
 H1636   1.0    66.8362140700     93.7100315100     85.4441642800 
 H1637   1.0    65.9519004800     95.0930118600     85.0982856800 
  H000    1.0    65.71962162394844  94.21026254148714  86.58970530463664 
  H000    1.0    69.24388083361546  96.64557740834148  86.54626968855564 
 $end 
 $comment Atoms to be erased:  $end

