 $contrl units=angs local=boys runtyp=makefp 
       mult=1 icharg=0 coord=cart icut=11 $end
 $system timlim=99999   mwords=200 $end
 $scf soscf=.f. dirscf=.t. diis=.t. CONV=1.0d-06  $end
 $basis gbasis=n31 ngauss=6 ndfunc=1 $end
 $DAMP IFTTYP(1)=2,0 IFTFIX(1)=1,1 thrsh=500.0 $end
 $MAKEFP  POL=.t. DISP=.f. CHTR=.f.  EXREP=.f. $end
 $data
 g_157
 C1
 C2421   6.0    77.9131364800    102.0170497900     65.5748939500 
 O2422   8.0    76.6843938800    102.0834064500     65.3587198300 
 N2423   7.0    78.6681127500    100.9895896900     65.1865005500 
 H2424   1.0    79.6381378200    100.9848308600     65.4678010900 
 C2425   6.0    78.0511331600     99.9736785900     64.3233156200 
 H2426   1.0    78.7781190900     99.2451953900     63.9643001600 
 H2427   1.0    77.5802135500    100.4622554800     63.4703016300 
  H000    1.0    77.23411613419661  99.43004535910454  64.77151757159497 
  H000    1.0    78.4130669774774  102.75918520429344  66.1775907428764 
 $end 
 $comment Atoms to be erased:  $end

