 $contrl units=angs local=boys runtyp=makefp 
       mult=1 icharg=-1 coord=cart icut=11 $end
 $system timlim=99999   mwords=200 $end
 $scf soscf=.f. dirscf=.t. diis=.t. CONV=1.0d-06  $end
 $basis gbasis=n31 ngauss=6 ndfunc=1 $end
 $DAMP IFTTYP(1)=2,0 IFTFIX(1)=1,1 thrsh=500.0 $end
 $MAKEFP  POL=.t. DISP=.f. CHTR=.f.  EXREP=.f. $end
 $data
 g_156
 C1
 C2406   6.0    78.3589935300    101.8159771000     68.5328292800 
 O2407   8.0    77.1396589300    101.7223548900     68.3444309200 
 N2408   7.0    79.1446304300    102.4667263000     67.6856422400 
 H2409   1.0    80.0954151200    102.6923275000     67.9410171500 
 C2410   6.0    78.6357879600    103.0898094200     66.4460945100 
 H2411   1.0    77.8671217000    103.8164234200     66.7093324700 
 C2412   6.0    79.7883749000    103.7682819400     65.7135963400 
 H2413   1.0    80.4313659700    103.0566215500     65.1957082700 
 H2414   1.0    80.3756332400    104.2334651900     66.5053176900 
 C2415   6.0    79.2200565300    104.7134590100     64.7049856200 
 H2416   1.0    78.3837509200    104.2311763800     64.1989278800 
 H2417   1.0    79.9600267400    104.7912120800     63.9084339100 
 C2418   6.0    78.7792825700    106.0571193700     65.3056621600 
 O2419   8.0    79.5535087600    107.0318126700     65.1660871500 
 O2420   8.0    77.6397275900    106.1462497700     65.8340215700 
  H000    1.0    78.13585746252261  102.34767400570655  65.8433977171236 
  H000    1.0    78.70081264799083  101.34816851697816  69.44291373752418 
 $end 
 $comment Atoms to be erased:  $end

