 $contrl units=angs local=boys runtyp=makefp 
       mult=1 icharg=0 coord=cart icut=11 $end
 $system timlim=99999   mwords=200 $end
 $scf soscf=.f. dirscf=.t. diis=.t. CONV=1.0d-06  $end
 $basis gbasis=n31 ngauss=6 ndfunc=1 $end
 $DAMP IFTTYP(1)=2,0 IFTFIX(1)=1,1 thrsh=500.0 $end
 $MAKEFP  POL=.t. DISP=.f. CHTR=.f.  EXREP=.f. $end
 $data
 g_163
 C1
 C2509   6.0    68.6617517500     99.1268634800     65.3427505500 
 O2510   8.0    67.5838518100     98.5511493700     65.1292085600 
 N2511   7.0    68.9798164400    100.4011440300     65.0408935500 
 H2512   1.0    69.9226141000    100.7471084600     65.1483392700 
 C2513   6.0    68.1760215800    101.2400627100     64.0937805200 
 H2514   1.0    68.4068155300    102.2858905800     64.2965030700 
 H2515   1.0    67.1034526800    101.0678863500     64.1835308100 
  H000    1.0    68.40650405407723  101.0505003725259  63.057014949123634 
  H000    1.0    69.4440429381393  98.5469989361739  65.80720346190061 
 $end 
 $comment Atoms to be erased:  $end

