 $contrl units=angs local=boys runtyp=makefp 
       mult=1 icharg=0 coord=cart icut=11 $end
 $system timlim=99999   mwords=200 $end
 $scf soscf=.f. dirscf=.t. diis=.t. CONV=1.0d-06  $end
 $basis gbasis=n31 ngauss=6 ndfunc=1 $end
 $DAMP IFTTYP(1)=2,0 IFTFIX(1)=1,1 thrsh=500.0 $end
 $MAKEFP  POL=.t. DISP=.f. CHTR=.f.  EXREP=.f. $end
 $data
 g_179
 C1
 C2766   6.0    76.4283847800     79.3564319600     68.8647747000 
 O2767   8.0    76.1664199800     78.5951232900     69.8381900800 
 N2768   7.0    77.0905828500     78.8100719500     67.8139925000 
 H2769   1.0    77.3581552500     79.4929885900     67.1196365400 
 C2770   6.0    77.3856306100     77.3550415000     67.6121187200 
 H2771   1.0    77.9683542300     77.0014572100     68.4627103800 
 H2772   1.0    77.9783725700     77.2774696400     66.7006683300 
  H000    1.0    76.45189788717532  76.82838021734405  67.49083395064463 
  H000    1.0    76.16629326013671  80.40296967267915  68.86717277339915 
 $end 
 $comment Atoms to be erased:  $end

