 $contrl units=angs local=boys runtyp=makefp 
       mult=1 icharg=0 coord=cart icut=11 $end
 $system timlim=99999   mwords=200 $end
 $scf soscf=.f. dirscf=.t. diis=.t. CONV=1.0d-06  $end
 $basis gbasis=n31 ngauss=6 ndfunc=1 $end
 $DAMP IFTTYP(1)=2,0 IFTFIX(1)=1,1 thrsh=500.0 $end
 $MAKEFP  POL=.t. DISP=.f. CHTR=.f.  EXREP=.f. $end
 $data
 g_190
 C1
 C2903   6.0    60.5824089100     74.5964813200     74.3766832400 
 O2904   8.0    59.5091247600     74.7253799400     75.0011539500 
 N2905   7.0    61.5518713000     75.5477714500     74.3614101400 
 H2906   1.0    62.4289274200     75.5140113800     73.8616800300 
 C2907   6.0    61.5520906400     76.8506717700     74.9266243000 
 H2908   1.0    60.7003355000     76.9618797300     75.5976295500 
 C2909   6.0    62.8230571700     77.0047664600     75.7932806000 
 H2910   1.0    63.6733675000     76.8269443500     75.1349067700 
 H2911   1.0    62.8764581700     76.1744976000     76.4974832500 
 C2912   6.0    63.0337572100     78.3147525800     76.6549348800 
 H2913   1.0    62.2211456300     78.5135650600     77.3536729800 
 H2914   1.0    63.0927562700     79.1808509800     75.9957790400 
 C2915   6.0    64.2163085900     78.3342552200     77.6338338900 
 O2916   8.0    65.0152587900     77.4215412100     77.5983476600 
 N2917   7.0    64.2767810800     79.2131710100     78.5960817300 
 H2918   1.0    65.0146913500     79.0040493000     79.2532491700 
 H2919   1.0    63.5268116000     79.8860359200     78.6661005000 
  H000    1.0    61.454843613273894  77.64520043029431  74.20329441442642 
  H000    1.0    60.87733971577151  73.6472258207075  73.95731619733938 
 $end 
 $comment Atoms to be erased:  $end

