 $contrl units=angs local=boys runtyp=makefp 
       mult=1 icharg=-1 coord=cart icut=11 $end
 $system timlim=99999   mwords=200 $end
 $scf soscf=.f. dirscf=.t. diis=.t. CONV=1.0d-06  $end
 $basis gbasis=n31 ngauss=6 ndfunc=1 $end
 $DAMP IFTTYP(1)=2,0 IFTFIX(1)=1,1 thrsh=500.0 $end
 $MAKEFP  POL=.t. DISP=.f. CHTR=.f.  EXREP=.f. $end
 $data
 g_196
 C1
 C3017   6.0    61.0428571700     94.1943931600     71.2089014100 
 O3018   8.0    60.8247375500     94.6528530100     70.0648069400 
 N3019   7.0    60.9625387200     94.9560356100     72.3173189200 
 H3020   1.0    61.2090492200     94.5892620100     73.2255125000 
 C3021   6.0    61.0054588300     96.3943386100     72.2509574900 
 H3022   1.0    60.9467172600     96.6399192800     71.1906051600 
 C3023   6.0    59.7754001600     96.9429016100     73.0111265200 
 H3024   1.0    59.6768903700     98.0152607000     72.8424930600 
 H3025   1.0    59.9373006800     96.6876125300     74.0583705900 
 C3026   6.0    58.4066438700     96.3619422900     72.6183605200 
 H3027   1.0    58.4777975100     95.2751636500     72.5738811500 
 H3028   1.0    58.0997228600     96.5266609200     71.5855264700 
 C3029   6.0    57.3182106000     96.6263389600     73.5917377500 
 O3030   8.0    56.7079877900     97.6793575300     73.5748910900 
 O3031   8.0    57.0699453400     95.7930278800     74.4343185400 
  H000    1.0    61.935478313894166  96.76185604774174  72.65584462505493 
  H000    1.0    61.3910627480581  93.17767346691268  71.30362648956002 
 $end 
 $comment Atoms to be erased:  $end

