 $contrl units=angs local=boys runtyp=makefp 
       mult=1 icharg=0 coord=cart icut=11 $end
 $system timlim=99999   mwords=200 $end
 $scf soscf=.f. dirscf=.t. diis=.t. CONV=1.0d-06  $end
 $basis gbasis=n31 ngauss=6 ndfunc=1 $end
 $DAMP IFTTYP(1)=2,0 IFTFIX(1)=1,1 thrsh=500.0 $end
 $MAKEFP  POL=.t. DISP=.f. CHTR=.f.  EXREP=.f. $end
 $data
 g_199
 C1
 C3062   6.0    63.7289190300    102.4680709800     75.3692865400 
 O3063   8.0    63.2538127900    103.6095333100     75.6163072600 
 N3064   7.0    65.0054931600    102.2633647900     75.2235555600 
 H3065   1.0    65.2877140000    101.2998580900     75.1135730700 
 C3066   6.0    66.0758590700    103.2962799100     75.3878307300 
 H3067   1.0    66.0847282400    103.6573219300     76.4162683500 
 H3068   1.0    65.9373951000    104.1872119900     74.7753191000 
  H000    1.0    67.09685770841637  103.01942924454674  75.17604218217448 
  H000    1.0    63.11183210209439  101.58317178453638  75.3594866993967 
 $end 
 $comment Atoms to be erased:  $end

