 $contrl units=angs local=boys runtyp=makefp 
       mult=1 icharg=0 coord=cart icut=11 $end
 $system timlim=99999   mwords=200 $end
 $scf soscf=.f. dirscf=.t. diis=.t. CONV=1.0d-06  $end
 $basis gbasis=n31 ngauss=6 ndfunc=1 $end
 $DAMP IFTTYP(1)=2,0 IFTFIX(1)=1,1 thrsh=500.0 $end
 $MAKEFP  POL=.t. DISP=.f. CHTR=.f.  EXREP=.f. $end
 $data
 g_205
 C1
 C3142   6.0    80.0321865100    111.1375236500     82.0076370200 
 O3143   8.0    79.1998815500    111.9681072200     82.4509429900 
 N3144   7.0    80.9819221500    110.5583286300     82.6979637100 
 H3145   1.0    81.5355110200    109.8948574100     82.1750259400 
 C3146   6.0    81.3632011400    110.9351730300     84.0291595500 
 H3147   1.0    80.8721160900    110.3168106100     84.7805404700 
 H3148   1.0    81.0170269000    111.9520759600     84.2140197800 
  H000    1.0    82.43402275746344  111.03833100041201  84.11063590432113 
  H000    1.0    80.06190201637592  110.97022856950642  80.94224120420033 
 $end 
 $comment Atoms to be erased:  $end

