 $contrl units=angs local=boys runtyp=makefp 
       mult=1 icharg=-1 coord=cart icut=11 $end
 $system timlim=99999   mwords=200 $end
 $scf soscf=.f. dirscf=.t. diis=.t. CONV=1.0d-06  $end
 $basis gbasis=n31 ngauss=6 ndfunc=1 $end
 $DAMP IFTTYP(1)=2,0 IFTFIX(1)=1,1 thrsh=500.0 $end
 $MAKEFP  POL=.t. DISP=.f. CHTR=.f.  EXREP=.f. $end
 $data
 g_203
 C1
 C3116   6.0    75.4970979700    109.1191864000     76.5884828600 
 O3117   8.0    74.6022892000    109.8812484700     76.7708683000 
 N3118   7.0    76.6059684800    109.0173435200     77.3511076000 
 H3119   1.0    77.2441387200    108.2620334600     77.1453142200 
 C3120   6.0    76.8131828300    109.7507095300     78.6083936700 
 H3121   1.0    76.4793777500    110.7602787000     78.3687257800 
 C3122   6.0    76.0335636100    109.1089248700     79.8316049600 
 H3123   1.0    76.6658878300    108.3742046400     80.3300666800 
 H3124   1.0    75.1963424700    108.5687923400     79.3895196900 
 C3125   6.0    75.4861402500    110.1029491400     80.8162117000 
 H3126   1.0    75.1323270800    111.0031032600     80.3135681200 
 H3127   1.0    76.3126277900    110.4439830800     81.4396858200 
 C3128   6.0    74.3568563500    109.5242404900     81.6156768800 
 O3129   8.0    73.3229970900    110.2225303600     81.6693115200 
 O3130   8.0    74.4319343600    108.4585666700     82.1843910200 
  H000    1.0    77.85878495196674  109.83428939301831  78.86072184646171 
  H000    1.0    75.48188004583868  108.42814505992769  75.76012956538756 
 $end 
 $comment Atoms to be erased:  $end

