 $contrl units=angs local=boys runtyp=makefp 
       mult=1 icharg=0 coord=cart icut=11 $end
 $system timlim=99999   mwords=200 $end
 $scf soscf=.f. dirscf=.t. diis=.t. CONV=1.0d-06  $end
 $basis gbasis=n31 ngauss=6 ndfunc=1 $end
 $DAMP IFTTYP(1)=2,0 IFTFIX(1)=1,1 thrsh=500.0 $end
 $MAKEFP  POL=.t. DISP=.f. CHTR=.f.  EXREP=.f. $end
 $data
 g_208
 C1
 C3185   6.0    86.1408615100    108.2552433000     82.5877571100 
 O3186   8.0    86.7791557300    107.4540233600     81.9271850600 
 N3187   7.0    85.3322601300    109.1493034400     82.0851326000 
 H3188   1.0    84.7778034200    109.6897220600     82.7336883500 
 C3189   6.0    84.9866485600    109.4219493900     80.6903457600 
 H3190   1.0    85.7325267800    108.9057922400     80.0859069800 
 H3191   1.0    84.8783779100    110.4909324600     80.5068397500 
  H000    1.0    84.02673502809623  109.00411877312034  80.42972633158766 
  H000    1.0    86.31874067282443  108.18074797254268  83.64924114154259 
 $end 
 $comment Atoms to be erased:  $end

