 $contrl units=angs local=boys runtyp=makefp 
       mult=1 icharg=0 coord=cart icut=11 $end
 $system timlim=99999   mwords=200 $end
 $scf soscf=.f. dirscf=.t. diis=.t. CONV=1.0d-06  $end
 $basis gbasis=n31 ngauss=6 ndfunc=1 $end
 $DAMP IFTTYP(1)=2,0 IFTFIX(1)=1,1 thrsh=500.0 $end
 $MAKEFP  POL=.t. DISP=.f. CHTR=.f.  EXREP=.f. $end
 $data
 g_211
 C1
 C3222   6.0    78.4065961800    105.4228115100     78.0072927500 
 O3223   8.0    77.7971744500    106.4026927900     77.6066350900 
 N3224   7.0    78.1878280600    104.2253017400     77.4951791800 
 H3225   1.0    78.8045692400    103.4637641900     77.7396822000 
 C3226   6.0    77.0978927600    103.8034915900     76.6094684600 
 H3227   1.0    77.3998975800    103.3330631300     75.6737422900 
 H3228   1.0    76.5683698700    104.6817874900     76.2402868300 
  H000    1.0    76.39088068615376  103.13831613240399  77.08022788650955 
  H000    1.0    79.24721707072693  105.50328653729237  78.67872345205029 
 $end 
 $comment Atoms to be erased:  $end

