 $contrl units=angs local=boys runtyp=makefp 
       mult=1 icharg=-1 coord=cart icut=11 $end
 $system timlim=99999   mwords=200 $end
 $scf soscf=.f. dirscf=.t. diis=.t. CONV=1.0d-06  $end
 $basis gbasis=n31 ngauss=6 ndfunc=1 $end
 $DAMP IFTTYP(1)=2,0 IFTFIX(1)=1,1 thrsh=500.0 $end
 $MAKEFP  POL=.t. DISP=.f. CHTR=.f.  EXREP=.f. $end
 $data
 g_64
 C1
 C947   6.0    85.8668136600     82.2592735300     86.2324905400 
 O948   8.0    86.0815525100     83.3987236000     85.8054542500 
 N949   7.0    86.7687797500     81.3273811300     86.2445640600 
 H950   1.0    86.4917755100     80.3965759300     86.5219688400 
 C951   6.0    88.1379509000     81.5823268900     85.6521415700 
 H952   1.0    88.0722522700     82.3447322800     84.8759079000 
 C953   6.0    89.1568565400     82.0227813700     86.7487716700 
 H954   1.0    89.2833614300     81.1711597400     87.4172210700 
 H955   1.0    88.7431430800     82.9095935800     87.2288703900 
 C956   6.0    90.4859638200     82.4958229100     86.1949348400 
 H957   1.0    90.3124427800     83.1056499500     85.3083038300 
 H958   1.0    91.0042667400     81.6387081100     85.7650184600 
 C959   6.0    91.4814853700     83.0828571300     87.1695709200 
 O960   8.0    92.2655296300     83.9872169500     86.7520141600 
 O961   8.0    91.4309597000     82.6899719200     88.3188056900 
  H000    1.0    88.54364381890485  80.70828371335489  85.16696048987569 
  H000    1.0    84.91634923681028  82.02801263487511  86.68754512819426 
 $end 
 $comment Atoms to be erased:  $end

