 $contrl units=angs local=boys runtyp=makefp 
       mult=1 icharg=-1 coord=cart icut=11 $end
 $system timlim=99999   mwords=200 $end
 $scf soscf=.f. dirscf=.t. diis=.t. CONV=1.0d-06  $end
 $basis gbasis=n31 ngauss=6 ndfunc=1 $end
 $DAMP IFTTYP(1)=2,0 IFTFIX(1)=1,1 thrsh=500.0 $end
 $MAKEFP  POL=.t. DISP=.f. CHTR=.f.  EXREP=.f. $end
 $data
 g_77
 C1
 C1155   6.0    79.0056753200     89.1957855200     90.1251220700 
 O1156   8.0    78.8807106000     88.1922626500     90.7948303200 
 N1157   7.0    78.4941959400     90.3619575500     90.5763626100 
 H1158   1.0    78.5298585900     91.1840629600     89.9907302900 
 C1159   6.0    77.7306413700     90.3948402400     91.7727279700 
 H1160   1.0    77.4044990500     89.3737888300     91.9707107500 
 C1161   6.0    78.4966754900     91.0722827900     92.9059410100 
 H1162   1.0    77.8871536300     90.8091068300     93.7704277000 
 H1163   1.0    78.4776163100     92.1600246400     92.8383445700 
 C1164   6.0    79.9199485800     90.5860900900     93.1067848200 
 H1165   1.0    80.4455184900     91.0928726200     92.2974205000 
 H1166   1.0    80.0635147100     89.5152092000     92.9629135100 
 C1167   6.0    80.4481792400     90.9600257900     94.5171356200 
 O1168   8.0    79.7459840800     90.9873008700     95.5576705900 
 O1169   8.0    81.6980648000     91.1031055500     94.6798515300 
  H000    1.0    76.80178778705672  90.90793850250665  91.57804850506831 
  H000    1.0    79.49873534014603  89.1077864453  89.16956627414842 
 $end 
 $comment Atoms to be erased:  $end

