 $contrl units=angs local=boys runtyp=makefp 
       mult=1 icharg=0 coord=cart icut=11 $end
 $system timlim=99999   mwords=200 $end
 $scf soscf=.f. dirscf=.t. diis=.t. CONV=1.0d-06  $end
 $basis gbasis=n31 ngauss=6 ndfunc=1 $end
 $DAMP IFTTYP(1)=2,0 IFTFIX(1)=1,1 thrsh=500.0 $end
 $MAKEFP  POL=.t. DISP=.f. CHTR=.f.  EXREP=.f. $end
 $data
 g_865
 C1
 C15316   6.0    80.8808898900     82.4234294900     62.8137540800 
 O15317   8.0    80.6009388000     81.5234184300     62.0185279800 
 N15318   7.0    80.0235843700     83.3845806100     63.0334377300 
 H15319   1.0    80.2844619800     84.1719818100     63.6096668200 
 C15320   6.0    78.7313032200     83.4728431700     62.3772621200 
 H15321   1.0    78.3188962900     82.4964427900     62.1229505500 
 C15322   6.0    77.7045297600     84.0850353200     63.2684660000 
 H15323   1.0    76.7509079000     84.1443824800     62.7438831300 
 H15324   1.0    78.0228281000     85.0595760300     63.6386537600 
 C15325   6.0    77.3968887300     83.2126808200     64.4336128200 
 H15326   1.0    77.9401302300     82.2728061700     64.5317983600 
 H15327   1.0    76.3617372500     82.9449939700     64.2217111600 
 C15328   6.0    77.4125862100     84.0270423900     65.7377433800 
 O15329   8.0    78.4226322200     84.1638755800     66.4147520100 
 N15330   7.0    76.2921094900     84.6537685400     66.0904359800 
 H15331   1.0    76.3464403200     85.3178024300     66.8495225900 
 H15332   1.0    75.4690790200     84.6718311300     65.5052948000 
  H000    1.0    78.84262562483754  84.05709502968794  61.47715324534518 
  H000    1.0    81.79746146373331  82.37300304227308  63.3805808817602 
 $end 
 $comment Atoms to be erased:  $end

