 $contrl units=angs local=boys runtyp=makefp 
       mult=1 icharg=0 coord=cart icut=11 $end
 $system timlim=99999   mwords=200 $end
 $scf soscf=.f. dirscf=.t. diis=.t. CONV=1.0d-06  $end
 $basis gbasis=n31 ngauss=6 ndfunc=1 $end
 $DAMP IFTTYP(1)=2,0 IFTFIX(1)=1,1 thrsh=500.0 $end
 $MAKEFP  POL=.t. DISP=.f. CHTR=.f.  EXREP=.f. $end
 $data
 g_866
 C1
 C15333   6.0    78.8912820800     84.3124580400     61.0837364200 
 O15334   8.0    79.9236440700     84.8503780400     60.8304691300 
 N15335   7.0    77.8993129700     84.4266605400     60.2935600300 
 H15336   1.0    77.1458816500     83.7589740800     60.3749942800 
 C15337   6.0    77.7652359000     85.3058433500     59.1020155000 
 H15338   1.0    78.6635017400     85.2390384700     58.4882021000 
 H15339   1.0    77.6407480200     86.3547420500     59.3711137800 
  H000    1.0    76.94971168302656  84.95943008224577  58.48650189409538 
  H000    1.0    78.77995967516246  83.72820618031206  61.98384529465482 
 $end 
 $comment Atoms to be erased:  $end

