 $contrl units=angs local=boys runtyp=makefp 
       mult=1 icharg=0 coord=cart icut=11 $end
 $system timlim=99999   mwords=200 $end
 $scf soscf=.f. dirscf=.t. diis=.t. CONV=1.0d-06  $end
 $basis gbasis=n31 ngauss=6 ndfunc=1 $end
 $DAMP IFTTYP(1)=2,0 IFTFIX(1)=1,1 thrsh=500.0 $end
 $MAKEFP  POL=.t. DISP=.f. CHTR=.f.  EXREP=.f. $end
 $data
 g_92
 C1
 C1395   6.0    72.0815801600     95.0611209900     90.7122421300 
 O1396   8.0    72.2735452700     94.2244052900     91.5842437700 
 N1397   7.0    73.1011962900     95.5261707300     90.0218772900 
 H1398   1.0    72.9996347400     96.2409496300     89.3155670200 
 C1399   6.0    74.5836353300     95.1817894000     90.2367210400 
 H1400   1.0    74.5929002800     94.1027545900     90.3906250000 
 H1401   1.0    75.0038528400     95.3870487200     91.2212944000 
  H000    1.0    75.2879549091911  95.46460817038857  89.46998355357849 
  H000    1.0    71.05275286994979  95.3489838207386  90.56194809310206 
 $end 
 $comment Atoms to be erased:  $end

