 $contrl units=angs local=boys runtyp=makefp 
       mult=1 icharg=-1 coord=cart icut=11 $end
 $system timlim=99999   mwords=200 $end
 $scf soscf=.f. dirscf=.t. diis=.t. CONV=1.0d-06  $end
 $basis gbasis=n31 ngauss=6 ndfunc=1 $end
 $DAMP IFTTYP(1)=2,0 IFTFIX(1)=1,1 thrsh=500.0 $end
 $MAKEFP  POL=.t. DISP=.f. CHTR=.f.  EXREP=.f. $end
 $data
 g_93
 C1
 C1402   6.0    75.5773782700     95.5808258100     89.1549110400 
 O1403   8.0    75.3630113600     96.6247272500     88.5054969800 
 N1404   7.0    76.6221427900     94.7448253600     88.9105033900 
 H1405   1.0    76.6901731500     93.9565849300     89.5383071900 
 C1406   6.0    77.7814722100     95.0054359400     88.0429649400 
 H1407   1.0    77.3121690800     95.2756023400     87.0969772300 
 C1408   6.0    78.5277843500     96.1991119400     88.6064720200 
 H1409   1.0    77.8407335300     97.0445537600     88.6424255400 
 H1410   1.0    79.3442010900     96.3832283000     87.9081344600 
 C1411   6.0    79.1686487200     95.9404945400     90.0269699100 
 H1412   1.0    79.6944379800     94.9860477400     90.0529098500 
 H1413   1.0    78.4563636800     95.9810829200     90.8510398900 
 C1414   6.0    80.1312255900     96.9914627100     90.4040336600 
 O1415   8.0    81.3574981700     96.6557121300     90.3262710600 
 O1416   8.0    79.8021411900     98.1745815300     90.7303237900 
  H000    1.0    78.4117610978509  94.15833204306284  87.821402747274 
  H000    1.0    74.8730586908089  95.29800703961142  89.92164852642152 
 $end 
 $comment Atoms to be erased:  $end

