 $contrl units=angs local=boys runtyp=makefp 
       mult=1 icharg=0 coord=cart icut=11 $end
 $system timlim=99999   mwords=200 $end
 $scf soscf=.f. dirscf=.t. diis=.t. CONV=1.0d-06  $end
 $basis gbasis=n31 ngauss=6 ndfunc=1 $end
 $DAMP IFTTYP(1)=2,0 IFTFIX(1)=1,1 thrsh=500.0 $end
 $MAKEFP  POL=.t. DISP=.f. CHTR=.f.  EXREP=.f. $end
 $data
 g_94
 C1
 C1417   6.0    78.6722469300     93.8082408900     87.7298355100 
 O1418   8.0    78.6376428600     92.8056049300     88.4750175500 
 N1419   7.0    79.5440816900     93.9380741100     86.7248344400 
 H1420   1.0    79.6110963800     94.7637748700     86.1470413200 
 C1421   6.0    80.5898666400     92.8975105300     86.5176963800 
 H1422   1.0    80.1721000700     92.1059513100     85.8955955500 
 H1423   1.0    80.8063125600     92.4636650100     87.4939346300 
  H000    1.0    81.51457868306025  93.28715916651797  86.12143828597664 
  H000    1.0    78.0419580421491  94.65534478693715  87.951397702726 
 $end 
 $comment Atoms to be erased:  $end

