 $contrl units=angs local=boys runtyp=makefp 
       mult=1 icharg=0 coord=cart icut=11 $end
 $system timlim=99999   mwords=200 $end
 $scf soscf=.f. dirscf=.t. diis=.t. CONV=1.0d-06  $end
 $basis gbasis=n31 ngauss=6 ndfunc=1 $end
 $DAMP IFTTYP(1)=2,0 IFTFIX(1)=1,1 thrsh=500.0 $end
 $MAKEFP  POL=.t. DISP=.f. CHTR=.f.  EXREP=.f. $end
 $data
 g_955
 C1
 C16691   6.0    76.2360286700     79.8126316100     64.3890857700 
 O16692   8.0    76.6784811000     80.1086425800     65.4865264900 
 N16693   7.0    76.9661378900     78.9839649200     63.6268138900 
 H16694   1.0    76.4285564400     78.6680316900     62.8322792100 
 C16695   6.0    78.4292030300     78.7267875700     63.6905288700 
 H16696   1.0    78.8592004800     78.9767551400     64.6604394900 
 H16697   1.0    78.8946390200     79.3577384900     62.9333066900 
  H000    1.0    78.62864265743364  77.68992886933155  63.46897352825158 
  H000    1.0    75.25674685171039  80.12035264714108  64.05704091870997 
 $end 
 $comment Atoms to be erased:  $end

