 $contrl units=angs local=boys runtyp=makefp 
       mult=1 icharg=0 coord=cart icut=11 $end
 $system timlim=99999   mwords=200 $end
 $scf soscf=.f. dirscf=.t. diis=.t. CONV=1.0d-06  $end
 $basis gbasis=n31 ngauss=6 ndfunc=1 $end
 $DAMP IFTTYP(1)=2,0 IFTFIX(1)=1,1 thrsh=500.0 $end
 $MAKEFP  POL=.t. DISP=.f. CHTR=.f.  EXREP=.f. $end
 $data
 g_99
 C1
 C1484   6.0    91.1602497100     87.5837802900     76.8268537500 
 O1485   8.0    91.1921691900     88.6718940700     76.1791801500 
 N1486   7.0    92.1820354500     86.6785812400     76.8622493700 
 H1487   1.0    92.0263195000     85.8373260500     77.3990202000 
 C1488   6.0    93.4705829600     86.8222713500     76.1692285500 
 H1489   1.0    93.2751178700     87.0128059400     75.1139593100 
 H1490   1.0    94.0287685400     85.8991432200     76.3253116600 
  H000    1.0    94.06193829752651  87.63866333015471  76.55360063420743 
  H000    1.0    90.28823998984772  87.37495200588187  77.42679432648421 
 $end 
 $comment Atoms to be erased:  $end

