 $contrl units=angs local=boys runtyp=makefp 
       mult=1 icharg=0 coord=cart icut=11 $end
 $system timlim=99999   mwords=200 $end
 $scf soscf=.f. dirscf=.t. diis=.t. CONV=1.0d-06  $end
 $basis gbasis=n31 ngauss=6 ndfunc=1 $end
 $DAMP IFTTYP(1)=2,0 IFTFIX(1)=1,1 thrsh=500.0 $end
 $MAKEFP  POL=.t. DISP=.f. CHTR=.f.  EXREP=.f. $end
 $data
 h_1098
 C1
 MG19796   12.0    75.3654384600     94.2448902100     62.6532554600 
 C19797   6.0    73.0932140400     93.5711860700     60.0635767000 
 C19798   6.0    77.3887062100     95.8544063600     60.1938486100 
 H19799   1.0    78.0705785800     96.2593269300     59.4431448000 
 C19800   6.0    77.5513792000     95.2236080200     65.1087617900 
 H19801   1.0    78.1459808300     95.5850410500     65.9503507600 
 C19802   6.0    73.6205768600     92.3632431000     64.9322128300 
 H19803   1.0    73.1463432300     91.6725826300     65.6326103200 
 N19804   7.0    75.2855396300     94.6735763500     60.4272127200 
 C19805   6.0    74.1647481900     94.3867874100     59.5839929600 
 C19806   6.0    74.3367576600     95.0704097700     58.2017517100 
 H19807   1.0    74.2172575000     94.2549037900     57.4884748500 
 C19808   6.0    75.8762264300     95.3776645700     58.1562757500 
 H19809   1.0    76.1301040600     96.4081382800     57.9077482200 
 C19810   6.0    76.2134552000     95.3096675900     59.6801614800 
 C19811   6.0    76.8148040800     94.5219039900     57.2148799900 
 H19812   1.0    77.8668022200     94.7642040300     57.3655605300 
 H19813   1.0    76.6409492500     93.4554958300     57.3586273200 
 H19814   1.0    76.7093706100     94.7611522700     56.1567020400 
 N19815   7.0    77.2080898300     95.4081249200     62.7031278600 
 C19816   6.0    77.8422069500     95.8931255300     61.5647554400 
 C19817   6.0    79.0723562200     96.6278648400     62.0535755200 
 C19818   6.0    79.2086696600     96.4460849800     63.4400367700 
 C19819   6.0    78.0027532600     95.6356048600     63.8184881200 
 C19820   6.0    79.9084281900     97.5321960400     61.1528635000 
 H19821   1.0    80.2378368400     98.4166145300     61.6982030900 
 H19822   1.0    80.7922744800     96.9310951200     60.9393549000 
 H19823   1.0    79.4587469100     97.9786872900     60.2659940700 
 C19824   6.0    80.3316879300     96.8792724600     64.4407701500 
 O19825   8.0    80.3466415400     96.4661407500     65.6020021400 
 C19826   6.0    81.6047096300     97.7296638500     64.1122484200 
 H19827   1.0    82.2731208800     97.8994178800     64.9563550900 
 H19828   1.0    82.2443962100     97.1921825400     63.4122467000 
 H19829   1.0    81.3196849800     98.7071991000     63.7232875800 
 N19830   7.0    75.4815578500     94.0118122100     64.8372745500 
 C19831   6.0    76.4620208700     94.5205402400     65.6087827700 
 C19832   6.0    76.3283634200     94.0067195900     67.0812177700 
 H19833   1.0    76.2098503100     94.9210929900     67.6625680900 
 C19834   6.0    75.0602912900     93.1359386400     67.0229387300 
 H19835   1.0    75.3496360800     92.0997524300     67.1981573100 
 C19836   6.0    74.6332788500     93.1523513800     65.5456876800 
 C19837   6.0    77.5936460500     93.4813308700     67.6671361900 
 H19838   1.0    78.0277395200     92.6201057400     67.1592569400 
 H19839   1.0    78.4048223500     94.1856670400     67.8514957400 
 H19840   1.0    77.4695301100     93.1455898300     68.6966848400 
 C19841   6.0    73.9139223100     93.5218906400     67.9952764500 
 H19842   1.0    73.1549453700     92.7424049400     68.0620479600 
 H19843   1.0    74.3561172500     93.5773468000     68.9900112200 
 C19844   6.0    73.1804800000     94.9112701400     67.7524852800 
 H19845   1.0    72.8999137900     95.1295375800     66.7220687900 
 H19846   1.0    72.3428440100     95.1707077000     68.3999109300 
 H19847   1.0    73.9475536300     95.6635856600     67.9361295700 
 N19848   7.0    73.6461687100     93.2576465600     62.5647068000 
 C19849   6.0    73.0895757700     92.4515533400     63.5618448300 
 C19850   6.0    71.8403816200     91.8978118900     62.9486560800 
 C19851   6.0    71.7832946800     92.3225021400     61.6624355300 
 C19852   6.0    72.9035997400     93.1139850600     61.4393091200 
 C19853   6.0    70.9743356700     90.8230972300     63.6823511100 
 H19854   1.0    71.4256954200     89.8319625900     63.6374473600 
 H19855   1.0    70.9299755100     90.9697437300     64.7615289700 
 H19856   1.0    69.9507999400     90.7454490700     63.3156871800 
 C19857   6.0    71.0818576800     92.1737003300     60.4124927500 
 O19858   8.0    70.0770473500     91.5198993700     60.2362823500 
 C19859   6.0    71.8220806100     92.9983043700     59.2739534400 
 H19860   1.0    71.2415170700     93.8105487800     58.8365840900 
 C19861   6.0    72.1354341500     92.0345306400     58.0420303300 
 O19862   8.0    71.5777778600     92.1784687000     56.9597196600 
 O19863   8.0    72.8042173400     90.8110904700     58.3372879000 
 C19864   6.0    74.0415573100     90.4962635000     57.6216125500 
 H19865   1.0    73.8399696400     89.9776554100     56.6843271300 
 H19866   1.0    74.6462059000     91.3731670400     57.3902273200 
 H19867   1.0    74.5602369300     89.8335266100     58.3143281900 
  H000    1.0    73.6299307995352  95.84060056565329  57.93502933145553 
 $end 
 $comment Atoms to be erased:  $end

