 $contrl units=angs local=boys runtyp=makefp 
       mult=1 icharg=0 coord=cart icut=11 $end
 $system timlim=99999   mwords=200 $end
 $scf soscf=.f. dirscf=.t. diis=.t. CONV=1.0d-06  $end
 $basis gbasis=n31 ngauss=6 ndfunc=1 $end
 $DAMP IFTTYP(1)=2,0 IFTFIX(1)=1,1 thrsh=500.0 $end
 $MAKEFP  POL=.t. DISP=.f. CHTR=.f.  EXREP=.f. $end
 $data
 h_138
 C1
 C2111   6.0    59.9691161300     88.9619259200     81.9420045000 
 O2112   8.0    60.1928841200     88.7063017500     83.1222337100 
 N2113   7.0    60.7752048300     89.7110510000     81.1965193200 
 H2114   1.0    60.5006441000     89.9132215400     80.2377322000 
 C2115   6.0    62.0293639500     90.3248076600     81.6504688000 
 H2116   1.0    62.1262139300     90.3001465400     82.7395031200 
 C2117   6.0    63.2135081900     89.5982959600     80.9872905600 
 H2118   1.0    64.1015835100     90.2250175200     81.0868292500 
 H2119   1.0    62.9761075300     89.5273712600     79.9301330000 
 C2120   6.0    63.6016049700     88.2145153200     81.4530813100 
 N2121   7.0    62.7950618900     87.2564471800     82.0159872100 
 H2122   1.0    61.8523405700     87.4061682000     82.3439772800 
 C2123   6.0    63.5458850700     86.1676689300     82.2643417900 
 H2124   1.0    63.2109809500     85.2776549600     82.7796336300 
 N2125   7.0    64.8012690400     86.3569931300     81.8424087600 
 C2126   6.0    64.8482081400     87.6570016400     81.3363482000 
 H2127   1.0    65.7241400700     88.1388858600     80.9256641600 
  H000    1.0    62.07300745447119  91.35175814125505  81.32273895215651 
  H000    1.0    59.105043230653386  88.53107489212573  81.46066853002225 
 $end 
 $comment Atoms to be erased:  $end

