 $contrl units=angs local=boys runtyp=makefp 
       mult=1 icharg=0 coord=cart icut=11 $end
 $system timlim=99999   mwords=200 $end
 $scf soscf=.f. dirscf=.t. diis=.t. CONV=1.0d-06  $end
 $basis gbasis=n31 ngauss=6 ndfunc=1 $end
 $DAMP IFTTYP(1)=2,0 IFTFIX(1)=1,1 thrsh=500.0 $end
 $MAKEFP  POL=.t. DISP=.f. CHTR=.f.  EXREP=.f. $end
 $data
 h_219
 C1
 C3359   6.0    59.8491001100     86.2665176400     76.5522575400 
 O3360   8.0    60.4104709600     86.1564159400     75.4396772400 
 N3361   7.0    59.8292017000     85.2189159400     77.3809862100 
 H3362   1.0    59.1619300800     85.1603794100     78.1369066200 
 C3363   6.0    60.3151273700     83.8584709200     77.0751810100 
 H3364   1.0    60.3077936200     83.7450790400     75.9911155700 
 C3365   6.0    61.7848396300     83.7267684900     77.5740003600 
 H3366   1.0    62.0415592200     84.7021102900     77.9873895600 
 H3367   1.0    62.4456691700     83.6561393700     76.7100429500 
 C3368   6.0    61.9884586300     82.6478672000     78.6742258100 
 N3369   7.0    62.2449159600     82.9034328500     79.9887609500 
 H3370   1.0    62.3545980500     83.7384033200     80.5463409400 
 C3371   6.0    62.3832321200     81.7532825500     80.6079292300 
 H3372   1.0    62.5360918000     81.5844726600     81.6636467000 
 N3373   7.0    62.1805906300     80.7249546100     79.7504186600 
 C3374   6.0    61.9297981300     81.2983036000     78.5127210600 
 H3375   1.0    61.6594266900     80.7441520700     77.6260328300 
  H000    1.0    59.55265731155725  83.18210633184783  77.4288888745889 
  H000    1.0    59.34701735422692  87.17961434919341  76.8317324147481 
 $end 
 $comment Atoms to be erased:  $end

