 $contrl units=angs local=boys runtyp=makefp 
       mult=1 icharg=0 coord=cart icut=11 $end
 $system timlim=99999   mwords=200 $end
 $scf soscf=.f. dirscf=.t. diis=.t. CONV=1.0d-06  $end
 $basis gbasis=n31 ngauss=6 ndfunc=1 $end
 $DAMP IFTTYP(1)=2,0 IFTFIX(1)=1,1 thrsh=500.0 $end
 $MAKEFP  POL=.t. DISP=.f. CHTR=.f.  EXREP=.f. $end
 $data
 h_362
 C1
 MG5946   12.0    72.5176477400     66.1408996600     89.0007782000 
 C5947   6.0    71.5957117100     63.9813280100     91.6246223400 
 C5948   6.0    70.6483173400     68.6773586300     90.5746269200 
 H5949   1.0    69.9944210100     69.4752121000     90.9328270000 
 C5950   6.0    73.3067226400     68.2153081900     86.3604736300 
 H5951   1.0    73.4746742200     68.8021421400     85.4549980200 
 C5952   6.0    73.5695314400     63.4849309900     87.1565818800 
 H5953   1.0    73.7911796600     62.6078319500     86.5450096100 
 N5954   7.0    71.4528894400     66.3170099300     90.9225654600 
 C5955   6.0    71.2196159400     65.3339290600     91.8619728100 
 C5956   6.0    70.5185604100     65.8397769900     93.0705452000 
 H5957   1.0    69.7091960900     65.1269817400     93.2284927400 
 C5958   6.0    69.8682308200     67.2448158300     92.5623512300 
 H5959   1.0    70.1570081700     67.9651784900     93.3277130100 
 C5960   6.0    70.7127904900     67.4459219000     91.3083457900 
 C5961   6.0    68.3165693300     67.4241781200     92.3511314400 
 H5962   1.0    68.1060457200     66.6830253600     91.5801048300 
 H5963   1.0    67.8419733000     67.1188497500     93.2836723300 
 H5964   1.0    67.9934692400     68.4032154100     91.9972991900 
 N5965   7.0    72.2163724900     68.2458543800     88.5754394500 
 C5966   6.0    71.4152240800     69.1395187400     89.4141960100 
 C5967   6.0    71.5795135500     70.5090236700     88.7809562700 
 C5968   6.0    72.4033784900     70.3889179200     87.6268386800 
 C5969   6.0    72.6602745100     68.8714504200     87.4808120700 
 C5970   6.0    71.1448669400     71.7994022400     89.5013999900 
 H5971   1.0    72.0297431900     72.4273395500     89.6052932700 
 H5972   1.0    70.3193569200     72.2576141400     88.9567375200 
 H5973   1.0    70.9222030600     71.5736389200     90.5442619300 
 C5974   6.0    72.8737497300     71.5006065400     86.6343116800 
 O5975   8.0    73.6854887000     71.3036251100     85.7131767300 
 C5976   6.0    72.3073816300     72.9122066500     86.6830825800 
 H5977   1.0    72.6847505600     73.3800411200     87.5923728900 
 H5978   1.0    72.5959157900     73.5333633400     85.8351326000 
 H5979   1.0    71.2174034100     72.9087448100     86.6905784600 
 N5980   7.0    73.4852027900     65.9126043300     87.0330429100 
 C5981   6.0    73.6653804800     66.8693828600     86.1140823400 
 C5982   6.0    74.1682100300     66.3341522200     84.7189331100 
 H5983   1.0    75.1760482800     66.7144775400     84.5524597200 
 C5984   6.0    74.3091726300     64.8311615000     85.0329971300 
 H5985   1.0    73.5856962200     64.2213487600     84.4918823200 
 C5986   6.0    73.7128973000     64.6935176800     86.5483665500 
 C5987   6.0    73.2633113900     66.6893339200     83.4237670900 
 H5988   1.0    73.4014463400     67.7595138500     83.2697105400 
 H5989   1.0    73.5508585000     66.1099052400     82.5464439400 
 H5990   1.0    72.2663497900     66.3330459600     83.6830520600 
 C5991   6.0    75.6540632200     64.0954208400     84.7697448700 
 H5992   1.0    76.4097356800     64.5665741000     85.3982925400 
 H5993   1.0    75.5532312400     63.0914926500     85.1821327200 
 C5994   6.0    76.1657571800     63.9490652100     83.3346176100 
 H5995   1.0    75.3996181500     63.5057115600     82.6985740700 
 H5996   1.0    76.5543508500     64.9226713200     83.0359458900 
 H5997   1.0    76.9608640700     63.2038497900     83.3584976200 
 N5998   7.0    72.7806520500     64.1897583000     89.3394279500 
 C5999   6.0    73.1549644500     63.1667947800     88.4414482100 
 C6000   6.0    72.9402113000     61.8660450000     89.0584945700 
 C6001   6.0    72.4743890800     62.1158742900     90.3375434900 
 C6002   6.0    72.3411274000     63.5347843200     90.4415512100 
 C6003   6.0    73.3371305500     60.5179595900     88.4727668800 
 H6004   1.0    72.9060602200     60.2898311600     87.4979782100 
 H6005   1.0    74.3863058100     60.2353096000     88.3864784200 
 H6006   1.0    72.8373813600     59.7962331800     89.1188812300 
 C6007   6.0    72.2329616500     61.4843845400     91.6073226900 
 O6008   8.0    72.3471164700     60.2949762300     91.8894004800 
 C6009   6.0    71.4453220400     62.6635885200     92.5118637100 
 H6010   1.0    71.9990301100     62.8255605700     93.4366798400 
 C6011   6.0    69.9708604800     62.2233915300     92.7856254600 
 O6012   8.0    69.1210746800     62.1669435500     91.9089126600 
 O6013   8.0    69.8858785600     61.3964223900     93.8965606700 
 C6014   6.0    69.1554641700     61.8996906300     95.0946998600 
 H6015   1.0    68.5863494900     61.0187578200     95.3916168200 
 H6016   1.0    69.8530149500     62.1742248500     95.8860015900 
 H6017   1.0    68.4216451600     62.7018690100     95.0164794900 
  H000    1.0    71.13883891034813  65.876242344951  93.95251104939224 
 $end 
 $comment Atoms to be erased:  $end

