 $contrl units=angs local=boys runtyp=makefp 
       mult=1 icharg=0 coord=cart icut=11 $end
 $system timlim=99999   mwords=200 $end
 $scf soscf=.f. dirscf=.t. diis=.t. CONV=1.0d-06  $end
 $basis gbasis=n31 ngauss=6 ndfunc=1 $end
 $DAMP IFTTYP(1)=2,0 IFTFIX(1)=1,1 thrsh=500.0 $end
 $MAKEFP  POL=.t. DISP=.f. CHTR=.f.  EXREP=.f. $end
 $data
 h_360
 C1
 MG5666   12.0    85.3976059000     80.9620475800     74.2415046700 
 C5667   6.0    85.0498771700     81.3989162400     70.8270454400 
 C5668   6.0    85.4280948600     84.3233871500     74.6050024000 
 H5669   1.0    85.3382873500     85.4009628300     74.7573947900 
 C5670   6.0    85.1078510300     80.4100799600     77.5321817400 
 H5671   1.0    85.1572990400     80.3645515400     78.6221075100 
 C5672   6.0    85.7903862000     77.5285530100     73.7018156100 
 H5673   1.0    86.0543823200     76.4948749500     73.4688043600 
 N5674   7.0    85.1781654400     82.7252197300     72.8414678600 
 C5675   6.0    84.9826431300     82.6603317300     71.4755582800 
 C5676   6.0    84.7127533000     84.1082763700     70.8370018000 
 H5677   1.0    85.3991890000     84.1923713700     69.9944829900 
 C5678   6.0    85.2160644500     85.0705814400     72.0586395300 
 H5679   1.0    84.4222641000     85.7490634900     72.3711442900 
 C5680   6.0    85.3669834100     83.9922523500     73.2371282600 
 C5681   6.0    86.4603138000     85.9675979600     71.8151187900 
 H5682   1.0    86.2807655300     86.6674804700     70.9990215300 
 H5683   1.0    86.8278408100     86.4479541800     72.7219104800 
 H5684   1.0    87.2312736500     85.2643299100     71.5002679800 
 N5685   7.0    85.1367378200     82.1510601000     75.8156108900 
 C5686   6.0    85.1950359300     83.5904502900     75.7917976400 
 C5687   6.0    85.0281810800     84.1545677200     77.2056150400 
 C5688   6.0    84.8136901900     83.0296611800     78.0479764900 
 C5689   6.0    85.0025939900     81.8045234700     77.1309614200 
 C5690   6.0    85.1061439500     85.6801033000     77.5808668100 
 H5691   1.0    85.7681083700     85.7989215900     78.4386587100 
 H5692   1.0    85.6675052600     86.2835884100     76.8675899500 
 H5693   1.0    84.0779113800     85.9804821000     77.7823686600 
 C5694   6.0    84.4170951800     82.9967784900     79.5991563800 
 O5695   8.0    83.9893150300     81.9337081900     80.1400184600 
 C5696   6.0    84.5135307300     84.1719532000     80.5624008200 
 H5697   1.0    84.0972423600     84.0115547200     81.5569305400 
 H5698   1.0    85.5735397300     84.3970203400     80.6799316400 
 H5699   1.0    83.9630508400     85.0579166400     80.2459716800 
 N5700   7.0    85.4353523300     79.1980075800     75.4839754100 
 C5701   6.0    85.3747940100     79.2400360100     76.8181800800 
 C5702   6.0    85.5036354100     77.8314399700     77.4824953100 
 H5703   1.0    84.5306015000     77.5972461700     77.9143095000 
 C5704   6.0    85.7450866700     76.8821239500     76.1916732800 
 H5705   1.0    86.7354393000     76.4549827600     76.3493824000 
 C5706   6.0    85.6608581500     77.9030704500     75.0702285800 
 C5707   6.0    86.6192627000     77.7429962200     78.6400556600 
 H5708   1.0    87.6459312400     78.0074405700     78.3868074400 
 H5709   1.0    86.3048934900     78.3268642400     79.5051527000 
 H5710   1.0    86.6042518600     76.7375946000     79.0607881500 
 C5711   6.0    84.8683166500     75.5530452700     76.0771513000 
 H5712   1.0    83.8203430200     75.8526420600     76.0863542600 
 H5713   1.0    85.1405715900     75.0054454800     75.1748657200 
 C5714   6.0    85.1134872400     74.4110584300     77.1192407600 
 H5715   1.0    84.5362854000     73.5083198500     76.9192886400 
 H5716   1.0    86.1399841300     74.0449047100     77.1371698400 
 H5717   1.0    85.0076293900     74.8478794100     78.1122636800 
 N5718   7.0    85.4749965700     79.7182560000     72.6678180700 
 C5719   6.0    85.6341171300     78.3163642900     72.5689935700 
 C5720   6.0    85.4300212900     77.8354263300     71.1701011700 
 C5721   6.0    85.2939796400     79.0643978100     70.4252529100 
 C5722   6.0    85.2398300200     80.1191902200     71.4077568100 
 C5723   6.0    85.5850505800     76.4979267100     70.5506658600 
 H5724   1.0    86.4162731200     76.4804172500     69.8457908600 
 H5725   1.0    85.5636501300     75.7884883900     71.3779163400 
 H5726   1.0    84.6947670000     76.2558269500     69.9702453600 
 C5727   6.0    85.1019763900     79.5901107800     69.0455961200 
 O5728   8.0    85.0266075100     79.0086746200     67.9737424900 
 C5729   6.0    84.8704910300     81.1749458300     69.2459678600 
 H5730   1.0    83.8290405300     81.4175319700     69.0347099300 
 C5731   6.0    85.8049297300     81.9634246800     68.3454322800 
 O5732   8.0    87.0076561000     81.8784523000     68.3934021000 
 O5733   8.0    85.1694297800     82.2541713700     67.1430206300 
 C5734   6.0    85.2036762200     83.6412334400     66.7383289300 
 H5735   1.0    84.2052745800     84.0636444100     66.8517780300 
 H5736   1.0    85.7554626500     84.4389343300     67.2356367100 
 H5737   1.0    85.5932045000     83.5576629600     65.7237482100 
  H000    1.0    83.71666342848243  84.28277639685388  70.46111137968032 
 $end 
 $comment Atoms to be erased:  $end

