 $contrl units=angs local=boys runtyp=makefp 
       mult=1 icharg=0 coord=cart icut=11 $end
 $system timlim=99999   mwords=200 $end
 $scf soscf=.f. dirscf=.t. diis=.t. CONV=1.0d-06  $end
 $basis gbasis=n31 ngauss=6 ndfunc=1 $end
 $DAMP IFTTYP(1)=2,0 IFTFIX(1)=1,1 thrsh=500.0 $end
 $MAKEFP  POL=.t. DISP=.f. CHTR=.f.  EXREP=.f. $end
 $data
 h_365
 C1
 MG6366   12.0    73.0254554700     74.4962310800     77.7435541200 
 C6367   6.0    75.3341054900     72.0664978000     76.9012641900 
 C6368   6.0    73.1105279900     75.7664299000     74.6124029200 
 H6369   1.0    73.1837987900     76.0921859700     73.5726976400 
 C6370   6.0    70.7232952100     76.7844867700     78.7187814700 
 H6371   1.0    70.0812625900     77.5663185100     79.1298627900 
 C6372   6.0    73.5288715400     73.6570835100     81.1779403700 
 H6373   1.0    73.7502241100     73.3583068800     82.2046852100 
 N6374   7.0    74.0294313400     73.9970970200     75.9620904900 
 C6375   6.0    74.9397802400     72.8645229300     75.8029842400 
 C6376   6.0    75.3042554900     72.7107811000     74.2757225000 
 H6377   1.0    76.3672971700     72.5489425700     74.0972423600 
 C6378   6.0    74.9970483800     74.1702938100     73.8034439100 
 H6379   1.0    74.6089220000     74.1588497200     72.7849483500 
 C6380   6.0    73.9748764000     74.7022342700     74.8112344700 
 C6381   6.0    76.2836027100     75.0862884500     73.6355829200 
 H6382   1.0    75.9188032200     76.0629463200     73.3175087000 
 H6383   1.0    76.8560504900     75.1216507000     74.5624828300 
 H6384   1.0    76.9749164600     74.6766376500     72.8991270100 
 N6385   7.0    71.9832801800     75.9232902500     76.7415475800 
 C6386   6.0    72.1139526400     76.3383007000     75.4938697800 
 C6387   6.0    71.0656929000     77.3632240300     75.1827764500 
 C6388   6.0    70.2583742100     77.4932479900     76.2736892700 
 C6389   6.0    70.9289169300     76.6898727400     77.2693300200 
 C6390   6.0    71.1200237300     78.1046390500     73.8133478200 
 H6391   1.0    70.9429931600     79.1797637900     73.8430309300 
 H6392   1.0    72.0671224600     77.9731178300     73.2900857900 
 H6393   1.0    70.3806495700     77.6189708700     73.1765222500 
 C6394   6.0    68.9528751400     78.4130954700     76.4835119200 
 O6395   8.0    68.3250141100     78.4129524200     77.5362539300 
 C6396   6.0    68.4008884400     79.2487335200     75.3223800700 
 H6397   1.0    69.1852998700     79.9734211000     75.1041507700 
 H6398   1.0    68.2902479200     78.5531425500     74.4904995000 
 H6399   1.0    67.4194049800     79.6946048700     75.4835796400 
 N6400   7.0    72.2456359900     75.1442337000     79.6052503600 
 C6401   6.0    71.5110206600     76.2495803800     79.7740411800 
 C6402   6.0    71.5156078300     76.7880344400     81.2344551100 
 H6403   1.0    70.4703235600     76.7927455900     81.5434265100 
 C6404   6.0    72.1297025700     75.5983924900     82.0513343800 
 H6405   1.0    72.9586267500     75.9656047800     82.6564216600 
 C6406   6.0    72.6703691500     74.7440052000     80.8700370800 
 C6407   6.0    72.1199417100     78.2541847200     81.3837242100 
 H6408   1.0    72.9769039200     78.4443283100     80.7375335700 
 H6409   1.0    71.3577842700     78.8841915100     80.9251403800 
 H6410   1.0    72.3046159700     78.5914039600     82.4036788900 
 C6411   6.0    71.1897277800     74.9415397600     83.2213592500 
 H6412   1.0    70.3198146800     74.4085598000     82.8375816300 
 H6413   1.0    71.8492507900     74.1702270500     83.6190986600 
 C6414   6.0    70.9189796400     75.8595562000     84.4515991200 
 H6415   1.0    70.4788494100     76.8469524400     84.3122482300 
 H6416   1.0    70.3387594200     75.3938961000     85.2482414200 
 H6417   1.0    71.8342256500     76.0979557000     84.9934768700 
 N6418   7.0    74.0124177900     73.0386257200     78.7801122700 
 C6419   6.0    74.1482830000     72.8217983200     80.1474380500 
 C6420   6.0    75.0841045400     71.6343402900     80.3760337800 
 C6421   6.0    75.4981041000     71.3469505300     79.1066503500 
 C6422   6.0    74.9345111800     72.2087860100     78.2143354400 
 C6423   6.0    75.4790639900     71.0165882100     81.7030525200 
 H6424   1.0    76.4788627600     70.6022262600     81.5733337400 
 H6425   1.0    75.4780578600     71.7437648800     82.5150299100 
 H6426   1.0    74.8573541600     70.1867532700     82.0391273500 
 C6427   6.0    76.3648653000     70.4120922100     78.4551096000 
 O6428   8.0    76.9487381000     69.4306659700     78.8687562900 
 C6429   6.0    76.3778877300     70.7835388200     76.9253873800 
 H6430   1.0    75.9819221500     69.9431085600     76.3553142500 
 C6431   6.0    77.7983045600     70.9530448900     76.3264894500 
 O6432   8.0    78.3698844900     70.2054882000     75.5659341800 
 O6433   8.0    78.2413244200     72.2751998900     76.3731384300 
 C6434   6.0    79.5417356500     72.5065994300     77.0769929900 
 H6435   1.0    79.7394895600     71.7202758800     77.8054761900 
 H6436   1.0    80.3139877300     72.5159645100     76.3078022000 
 H6437   1.0    79.6328496900     73.4569931000     77.6028680800 
  H000    1.0    74.74281599662821  71.94975153470762  73.75653217301644 
 $end 
 $comment Atoms to be erased:  $end

