 $contrl units=angs local=boys runtyp=makefp 
       mult=1 icharg=0 coord=cart icut=11 $end
 $system timlim=99999   mwords=200 $end
 $scf soscf=.f. dirscf=.t. diis=.t. CONV=1.0d-06  $end
 $basis gbasis=n31 ngauss=6 ndfunc=1 $end
 $DAMP IFTTYP(1)=2,0 IFTFIX(1)=1,1 thrsh=500.0 $end
 $MAKEFP  POL=.t. DISP=.f. CHTR=.f.  EXREP=.f. $end
 $data
 h_361
 C1
 MG5806   12.0    80.4528808600     65.0568389900     81.2673187300 
 C5807   6.0    81.2705230700     67.8342819200     79.3372869500 
 C5808   6.0    80.6368541700     67.1182155600     84.0884208700 
 H5809   1.0    80.5647850000     67.8358602500     84.9083328200 
 C5810   6.0    79.7968387600     62.3443460500     83.3091545100 
 H5811   1.0    79.6678733800     61.4244699500     83.8833236700 
 C5812   6.0    80.7682228100     62.9529619200     78.4584093100 
 H5813   1.0    80.9242439300     62.2860097900     77.6079416300 
 N5814   7.0    80.8314991000     67.2226142900     81.6385269200 
 C5815   6.0    80.9485435500     68.2148838000     80.6407737700 
 C5816   6.0    80.9875106800     69.6559572200     81.2748336800 
 H5817   1.0    81.8239402800     70.2247428900     80.8686828600 
 C5818   6.0    81.2943840000     69.2746305500     82.8097915600 
 H5819   1.0    80.6954193100     69.7976636900     83.5552978500 
 C5820   6.0    80.8953380600     67.7863979300     82.8999328600 
 C5821   6.0    82.7999877900     69.4713830900     83.0876541100 
 H5822   1.0    83.4982013700     68.8344430900     82.5446128800 
 H5823   1.0    83.2521820100     70.4627990700     83.0610275300 
 H5824   1.0    82.8891563400     69.2425537100     84.1496276900 
 N5825   7.0    80.1261329700     64.7741460800     83.4229087800 
 C5826   6.0    80.1925277700     65.7500124000     84.3810463000 
 C5827   6.0    80.0832939100     65.0749397300     85.7287025500 
 C5828   6.0    79.6212673200     63.7489700300     85.4849624600 
 C5829   6.0    79.8723697700     63.5510683100     84.0298843400 
 C5830   6.0    80.2613544500     65.8258152000     87.0827102700 
 H5831   1.0    80.9143638600     65.2678871200     87.7538299600 
 H5832   1.0    80.6130218500     66.8522214900     86.9782638500 
 H5833   1.0    79.3120861100     65.8192014700     87.6183700600 
 C5834   6.0    79.1878843300     62.6971054100     86.5453147900 
 O5835   8.0    79.1462516800     62.9889774300     87.7377700800 
 C5836   6.0    78.4888029100     61.4437770800     86.1897659300 
 H5837   1.0    77.8841829300     60.9529209100     86.9524002100 
 H5838   1.0    77.7542448000     61.5513896900     85.3916931200 
 H5839   1.0    79.1530656800     60.6680584000     85.8088302600 
 N5840   7.0    80.3450012200     62.9794359200     80.9411430400 
 C5841   6.0    79.9740123700     61.9824171100     81.9715690600 
 C5842   6.0    79.7842836400     60.5448341400     81.4057922400 
 H5843   1.0    78.8077259100     60.0930595400     81.5799713100 
 C5844   6.0    79.9811029400     60.8040761900     79.8311471900 
 H5845   1.0    80.8633041400     60.2241087000     79.5601320300 
 C5846   6.0    80.4486942300     62.3322582200     79.7297334700 
 C5847   6.0    80.7940864600     59.5371532400     82.0578765900 
 H5848   1.0    80.3466224700     59.1315698600     82.9652786300 
 H5849   1.0    80.9612560300     58.6864996000     81.3971519500 
 H5850   1.0    81.7973136900     59.9233770400     82.2380638100 
 C5851   6.0    78.7250804900     60.3900289500     78.9108133300 
 H5852   1.0    77.8292608300     60.9255313900     79.2251920700 
 H5853   1.0    79.0073871600     60.7047367100     77.9061365100 
 C5854   6.0    78.5082292600     58.8931226700     78.7356615100 
 H5855   1.0    77.6415538800     58.6195135100     78.1339025500 
 H5856   1.0    79.3776989000     58.3810091000     78.3235025400 
 H5857   1.0    78.3056020700     58.6192655600     79.7710657100 
 N5858   7.0    80.9247779800     65.3066015200     79.3397283600 
 C5859   6.0    80.9908866900     64.3415403400     78.2796716700 
 C5860   6.0    81.4251709000     65.1074647900     77.0708751700 
 C5861   6.0    81.6466236100     66.4281988100     77.4789190300 
 C5862   6.0    81.2420654300     66.5243816400     78.7860441200 
 C5863   6.0    81.7354011500     64.5869827300     75.7024192800 
 H5864   1.0    81.7363166800     65.3684186900     74.9425029800 
 H5865   1.0    82.7190589900     64.1381454500     75.5643034000 
 H5866   1.0    80.9418487500     63.8762044900     75.4718780500 
 C5867   6.0    81.9727420800     67.6787471800     76.9470453300 
 O5868   8.0    82.3479270900     68.0184078200     75.8105754900 
 C5869   6.0    81.6879653900     68.7000656100     78.1160116200 
 H5870   1.0    80.7581329300     69.2388105400     77.9335737200 
 C5871   6.0    82.8542995500     69.7484159500     78.1710100200 
 O5872   8.0    82.5363349900     70.9382057200     78.0194044100 
 O5873   8.0    83.8834381100     69.3914794900     78.9702940000 
 C5874   6.0    85.2478218100     69.6628809000     78.3964872400 
 H5875   1.0    85.5047798200     68.9836311300     77.5836515400 
 H5876   1.0    85.3888320900     70.6994533500     78.0903482400 
 H5877   1.0    85.9532928500     69.5293474200     79.2165994600 
  H000    1.0    80.16670638768736  70.33144116956814  81.090603804038 
 $end 
 $comment Atoms to be erased:  $end

