 $contrl units=angs local=boys runtyp=makefp 
       mult=1 icharg=0 coord=cart icut=11 $end
 $system timlim=99999   mwords=200 $end
 $scf soscf=.f. dirscf=.t. diis=.t. CONV=1.0d-06  $end
 $basis gbasis=n31 ngauss=6 ndfunc=1 $end
 $DAMP IFTTYP(1)=2,0 IFTFIX(1)=1,1 thrsh=500.0 $end
 $MAKEFP  POL=.t. DISP=.f. CHTR=.f.  EXREP=.f. $end
 $data
 h_364
 C1
 MG6226   12.0    67.6952981900     86.0195064500     83.0427551300 
 C6227   6.0    67.1119117700     86.6647052800     86.4826393100 
 C6228   6.0    69.1479873700     89.0669059800     82.6015853900 
 H6229   1.0    69.5167636900     90.0928497300     82.5391387900 
 C6230   6.0    68.3247900000     85.1714325000     79.7784280800 
 H6231   1.0    68.4869813900     84.6739006000     78.8199758500 
 C6232   6.0    65.6693506200     83.1657314300     83.4700012200 
 H6233   1.0    65.0100946400     82.3008060500     83.5687828100 
 N6234   7.0    68.1255626700     87.6417160000     84.3805885300 
 C6235   6.0    67.9016161000     87.6824665100     85.8112144500 
 C6236   6.0    68.6993360500     88.8951587700     86.3613128700 
 H6237   1.0    68.0747079800     89.3234920500     87.1451950100 
 C6238   6.0    68.7384319300     89.8983573900     85.0952529900 
 H6239   1.0    69.7193050400     90.3680801400     85.0220871000 
 C6240   6.0    68.6470842400     88.8235664400     83.9362144500 
 C6241   6.0    67.6640367500     91.0041141500     85.0314712500 
 H6242   1.0    67.6922130600     91.6575908700     85.9033966100 
 H6243   1.0    67.8923225400     91.7297363300     84.2507743800 
 H6244   1.0    66.6476202000     90.7213783300     84.7575187700 
 N6245   7.0    68.6452579500     87.0030403100     81.4031410200 
 C6246   6.0    69.1864252100     88.2019424400     81.4630508400 
 C6247   6.0    69.8607349400     88.4998321500     80.1432418800 
 C6248   6.0    69.7011995300     87.4054145800     79.2835664700 
 C6249   6.0    68.8503742200     86.4726257300     80.1430320700 
 C6250   6.0    70.5426788300     89.8399353000     79.7662115100 
 H6251   1.0    71.5989208200     89.5720195800     79.7403097200 
 H6252   1.0    70.2452135100     90.0670146900     78.7424707400 
 H6253   1.0    70.2024269100     90.7150268600     80.3198814400 
 C6254   6.0    70.2474260300     87.1248436000     77.7734994900 
 O6255   8.0    70.0053358100     86.0378456100     77.2444009800 
 C6256   6.0    71.3160562500     88.0225849200     77.0304393800 
 H6257   1.0    70.9338378900     88.9880752600     76.6990709300 
 H6258   1.0    72.1588182400     88.1325817100     77.7129030200 
 H6259   1.0    71.7212057100     87.5368690500     76.1427259400 
 N6260   7.0    67.1454715700     84.3509006500     81.7801857000 
 C6261   6.0    67.5026464500     84.2337322200     80.5004310600 
 C6262   6.0    66.8021202100     83.0169487000     79.8136758800 
 H6263   1.0    67.6259946800     82.4526023900     79.3768167500 
 C6264   6.0    66.1465644800     82.3014259300     81.0487556500 
 H6265   1.0    65.0647735600     82.2875022900     80.9159469600 
 C6266   6.0    66.3234138500     83.2844543500     82.1888732900 
 C6267   6.0    65.8329916000     83.2395553600     78.5540533100 
 H6268   1.0    65.5829906500     82.3113632200     78.0401849700 
 H6269   1.0    65.0320577600     83.8817215000     78.9204359100 
 H6270   1.0    66.4304113400     83.8205814400     77.8514719000 
 C6271   6.0    66.6176652900     80.7887840300     81.3120269800 
 H6272   1.0    65.9102201500     80.2712440500     81.9599342300 
 H6273   1.0    66.5162229500     80.2238178300     80.3854179400 
 C6274   6.0    68.0966377300     80.5299949600     81.6532325700 
 H6275   1.0    68.2575416600     79.4595813800     81.5250206000 
 H6276   1.0    68.8454294200     81.0044956200     81.0190010100 
 H6277   1.0    68.2405185700     80.7737350500     82.7058410600 
 N6278   7.0    66.7166757600     85.0439262400     84.6227455100 
 C6279   6.0    66.0065221800     83.9091014900     84.6204185500 
 C6280   6.0    65.5132246000     83.5615253400     86.0100364700 
 C6281   6.0    65.8583354900     84.6895504000     86.7593002300 
 C6282   6.0    66.5708923300     85.5450058000     85.8409309400 
 C6283   6.0    64.8500728600     82.3543262500     86.6094780000 
 H6284   1.0    64.7699785200     81.5798378000     85.8467102100 
 H6285   1.0    65.3821802100     82.0273304000     87.5028038000 
 H6286   1.0    63.8567400000     82.6026153600     86.9832992600 
 C6287   6.0    65.8516025500     85.3009128600     88.0664444000 
 O6288   8.0    65.5473852200     84.7592449200     89.1504097000 
 C6289   6.0    66.8625354800     86.4867496500     87.9676055900 
 H6290   1.0    67.8355836900     86.1071586600     88.2793617200 
 C6291   6.0    66.5551900900     87.5888824500     88.8637352000 
 O6292   8.0    67.1646261200     87.7590942400     89.8797607400 
 O6293   8.0    65.2380085000     88.1038951900     88.6004638700 
 C6294   6.0    64.9744081500     89.5205020900     88.6860847500 
 H6295   1.0    65.1629781700     89.8814392100     89.6971511800 
 H6296   1.0    65.6592798200     90.0340080300     88.0112648000 
 H6297   1.0    63.9356660800     89.8234176600     88.5543060300 
  H000    1.0    69.61444148500031  88.67687320546311  86.88939653264042 
 $end 
 $comment Atoms to be erased:  $end

