 $contrl units=angs local=boys runtyp=makefp 
       mult=1 icharg=0 coord=cart icut=11 $end
 $system timlim=99999   mwords=200 $end
 $scf soscf=.f. dirscf=.t. diis=.t. CONV=1.0d-06  $end
 $basis gbasis=n31 ngauss=6 ndfunc=1 $end
 $DAMP IFTTYP(1)=2,0 IFTFIX(1)=1,1 thrsh=500.0 $end
 $MAKEFP  POL=.t. DISP=.f. CHTR=.f.  EXREP=.f. $end
 $data
 h_363
 C1
 MG6086   12.0    68.8425779300     78.8292694100     92.5121879600 
 C6087   6.0    68.3330297500     75.5506992300     91.2091636700 
 C6088   6.0    69.3562841400     77.4864673600     95.6218719500 
 H6089   1.0    69.5055389400     76.9777393300     96.5765380900 
 C6090   6.0    69.2163276700     81.9321155500     93.7921714800 
 H6091   1.0    69.5130109800     82.8912735000     94.2216682400 
 C6092   6.0    68.4512615200     80.0498580900     89.2817115800 
 H6093   1.0    68.4024047900     80.5744648000     88.3252334600 
 N6094   7.0    68.7862205500     76.7609977700     93.3393859900 
 C6095   6.0    68.5436677900     75.5584716800     92.5975418100 
 C6096   6.0    68.8115596800     74.3114280700     93.5276794400 
 H6097   1.0    67.9356241200     73.6678218800     93.4464073200 
 C6098   6.0    68.8375425300     74.9988937400     94.9639892600 
 H6099   1.0    69.7036552400     74.6755504600     95.5414009100 
 C6100   6.0    68.9748430300     76.4741897600     94.6420669600 
 C6101   6.0    67.6282262800     74.7762584700     95.9174156200 
 H6102   1.0    67.3495674100     73.7240600600     95.9749984700 
 H6103   1.0    67.9760885200     75.1563167600     96.8779563900 
 H6104   1.0    66.7331552500     75.3284168200     95.6309318500 
 N6105   7.0    69.2796802500     79.6166420000     94.4978714000 
 C6106   6.0    69.5335197400     78.9143466900     95.5910682700 
 C6107   6.0    69.8601770400     79.8555660200     96.6992187500 
 C6108   6.0    69.5364904400     81.1033153500     96.2284278900 
 C6109   6.0    69.3676900900     80.9316635100     94.7909545900 
 C6110   6.0    70.5251693700     79.3005657200     98.0032730100 
 H6111   1.0    71.4711809200     79.8201561000     98.1556129500 
 H6112   1.0    69.9069404600     79.3468380000     98.8998031600 
 H6113   1.0    70.8931398400     78.2750225100     98.0339622500 
 C6114   6.0    69.3975305600     82.4614715600     97.1137428300 
 O6115   8.0    69.0871810900     83.5461711900     96.6413497900 
 C6116   6.0    69.5510673500     82.4153804800     98.5477256800 
 H6117   1.0    68.7484169000     81.7511653900     98.8681411700 
 H6118   1.0    70.4869937900     81.9868564600     98.9061927800 
 H6119   1.0    69.3736076400     83.3775043500     99.0283012400 
 N6120   7.0    68.8391447100     80.7129097000     91.6792488100 
 C6121   6.0    69.0314579000     81.8392467500     92.3934173600 
 C6122   6.0    68.8724136400     83.1254863700     91.5596771200 
 H6123   1.0    69.7805023200     83.7072277100     91.7179679900 
 C6124   6.0    68.9153575900     82.5432014500     90.1200103800 
 H6125   1.0    68.0614662200     82.8651237500     89.5239067100 
 C6126   6.0    68.6943435700     80.9995365100     90.3302955600 
 C6127   6.0    67.5662517500     84.0552139300     91.8363952600 
 H6128   1.0    66.7123937600     83.3815956100     91.9089317300 
 H6129   1.0    67.7626466800     84.6568298300     92.7238464400 
 H6130   1.0    67.5669097900     84.7763061500     91.0190010100 
 C6131   6.0    70.2060270300     82.8377914400     89.2558860800 
 H6132   1.0    71.0848808300     82.7323246000     89.8919677700 
 H6133   1.0    70.2133894000     82.1562576300     88.4052658100 
 C6134   6.0    70.2062654500     84.2128944400     88.6169433600 
 H6135   1.0    71.0846710200     84.4427776300     88.0138969400 
 H6136   1.0    69.3142080300     84.3172836300     87.9993438700 
 H6137   1.0    70.1868534100     85.0544452700     89.3094062800 
 N6138   7.0    68.4765338900     78.0493164100     90.6173706100 
 C6139   6.0    68.3018302900     78.6032486000     89.3625831600 
 C6140   6.0    67.8997421300     77.6874351500     88.3050155600 
 C6141   6.0    67.8895616500     76.4396667500     88.9979553200 
 C6142   6.0    68.2675886200     76.7402076700     90.3945541400 
 C6143   6.0    67.7609109900     77.9811859100     86.8604660000 
 H6144   1.0    66.7527484900     78.3852672600     86.7686653100 
 H6145   1.0    68.5085916500     78.7317848200     86.6041946400 
 H6146   1.0    67.8627014200     76.9779968300     86.4465332000 
 C6147   6.0    67.5925207100     75.0123119400     88.8835525500 
 O6148   8.0    67.1437263500     74.4915390000     87.8774642900 
 C6149   6.0    67.7820110300     74.3284702300     90.3494262700 
 H6150   1.0    68.5642957700     73.5779762300     90.2359390300 
 C6151   6.0    66.5510463700     73.5637569400     90.8357620200 
 O6152   8.0    66.3395595600     72.3740577700     90.6179618800 
 O6153   8.0    65.5283784900     74.4320106500     91.0516738900 
 C6154   6.0    64.8385334000     74.2830276500     92.4003791800 
 H6155   1.0    64.2417240100     73.3715438800     92.4339103700 
 H6156   1.0    65.4803228400     74.3880939500     93.2751083400 
 H6157   1.0    64.0626382800     75.0481700900     92.4257850600 
  H000    1.0    69.64413907593753  73.65280273492523  93.33542149593025 
 $end 
 $comment Atoms to be erased:  $end

