 $contrl units=angs local=boys runtyp=makefp 
       mult=1 icharg=0 coord=cart icut=11 $end
 $system timlim=99999   mwords=200 $end
 $scf soscf=.f. dirscf=.t. diis=.t. CONV=1.0d-06  $end
 $basis gbasis=n31 ngauss=6 ndfunc=1 $end
 $DAMP IFTTYP(1)=2,0 IFTFIX(1)=1,1 thrsh=500.0 $end
 $MAKEFP  POL=.t. DISP=.f. CHTR=.f.  EXREP=.f. $end
 $data
 i_140
 C1
 C2140   6.0    64.5142217700     94.4645886800     82.0767692300 
 O2141   8.0    64.8162441000     94.2379269300     83.2476339700 
 N2142   7.0    65.3460407300     95.0302028700     81.1890220600 
 H2143   1.0    64.8385906200     95.2651596100     80.3479576100 
 C2144   6.0    66.7966222800     95.1292419400     81.2199974100 
 H2145   1.0    67.1741390200     94.5700073200     82.0760536200 
 C2146   6.0    67.3720645900     94.4222354900     79.9401998500 
 H2147   1.0    66.9559049600     94.8645591700     79.0350675600 
 C2148   6.0    68.9308548000     94.4769096400     79.8032140700 
 H2149   1.0    69.4390678400     95.4388904600     79.7368383400 
 H2150   1.0    69.2760562900     93.8290214500     78.9975118600 
 H2151   1.0    69.3259048500     94.0443325000     80.7224082900 
 C2152   6.0    67.0220661200     92.9748916600     79.8439455000 
 H2153   1.0    67.6645660400     92.3924350700     79.1836214100 
 H2154   1.0    66.0412931400     92.8445529900     79.3865633000 
 C2155   6.0    66.9360828400     92.1704864500     81.1515998800 
 H2156   1.0    67.8578233700     92.2517776500     81.7276763900 
 H2157   1.0    66.8382549300     91.1104869800     80.9172058100 
 H2158   1.0    66.1363172500     92.5733375500     81.7730331400 
  H000    1.0    67.12605733796715  96.15434988922775  81.2875631898908 
  H000    1.0    63.55712430642177  94.15246536469739  81.6888486442397 
 $end 
 $comment Atoms to be erased:  $end

