 $contrl units=angs local=boys runtyp=makefp 
       mult=1 icharg=0 coord=cart icut=11 $end
 $system timlim=99999   mwords=200 $end
 $scf soscf=.f. dirscf=.t. diis=.t. CONV=1.0d-06  $end
 $basis gbasis=n31 ngauss=6 ndfunc=1 $end
 $DAMP IFTTYP(1)=2,0 IFTFIX(1)=1,1 thrsh=500.0 $end
 $MAKEFP  POL=.t. DISP=.f. CHTR=.f.  EXREP=.f. $end
 $data
 i_152
 C1
 C2337   6.0    83.4421157800    101.2156391100     71.9497585300 
 O2338   8.0    82.2802543600    100.8832168600     71.6720724100 
 N2339   7.0    83.9529228200    102.4303340900     71.6176891300 
 H2340   1.0    84.8349475900    102.6952552800     72.0323610300 
 C2341   6.0    83.2200527200    103.4109592400     70.7838869100 
 H2342   1.0    82.1913147000    103.4042072300     71.1440849300 
 C2343   6.0    83.8770008100    104.8436737100     71.0317993200 
 H2344   1.0    83.9194870000    104.9880123100     72.1113634100 
 C2345   6.0    85.3763580300    104.9055385600     70.5661201500 
 H2346   1.0    85.9303474400    104.1747856100     71.1553430600 
 H2347   1.0    85.6851100900    105.9350490600     70.7474613200 
 H2348   1.0    85.6046676600    104.6530532800     69.5306348800 
 C2349   6.0    82.9096698800    105.8742427800     70.5364322700 
 H2350   1.0    81.9700241100    105.6547164900     71.0433626200 
 H2351   1.0    82.8430461900    105.7527732800     69.4552755400 
 C2352   6.0    83.1930923500    107.3470878600     70.8714580500 
 H2353   1.0    84.0440177900    107.7426719700     70.3168821300 
 H2354   1.0    83.5656261400    107.3681449900     71.8956089000 
 H2355   1.0    82.3007392900    107.9614448500     70.7515382800 
  H000    1.0    83.09817328329835  103.15214813899512  69.74364601650181 
  H000    1.0    84.11603502741295  100.48907096656058  72.3762212839485 
 $end 
 $comment Atoms to be erased:  $end

