 $contrl units=angs local=boys runtyp=makefp 
       mult=1 icharg=0 coord=cart icut=11 $end
 $system timlim=99999   mwords=200 $end
 $scf soscf=.f. dirscf=.t. diis=.t. CONV=1.0d-06  $end
 $basis gbasis=n31 ngauss=6 ndfunc=1 $end
 $DAMP IFTTYP(1)=2,0 IFTFIX(1)=1,1 thrsh=500.0 $end
 $MAKEFP  POL=.t. DISP=.f. CHTR=.f.  EXREP=.f. $end
 $data
 i_162
 C1
 C2490   6.0    71.0539484000     97.9081344600     63.9453220400 
 O2491   8.0    70.0567579300     97.5065231300     63.3366060300 
 N2492   7.0    70.9729957600     98.3156299600     65.2363824800 
 H2493   1.0    71.8340587600     98.6640739400     65.6329345700 
 C2494   6.0    69.7490406000     98.3209228500     65.9882831600 
 H2495   1.0    69.3075132400     97.3317050900     66.1091470700 
 C2496   6.0    69.9885463700     98.8688087500     67.4637985200 
 H2497   1.0    70.5627822900     99.7866439800     67.3375797300 
 C2498   6.0    68.6427211800     99.0537262000     68.1821966200 
 H2499   1.0    68.0942630800     99.9236583700     67.8209114100 
 H2500   1.0    68.7968301800     99.2536354100     69.2425680200 
 H2501   1.0    68.0971336400     98.1175041200     68.0642795600 
 C2502   6.0    70.8321905100     97.8397750900     68.2342577000 
 H2503   1.0    71.5879678700     97.4632358600     67.5449705100 
 H2504   1.0    70.1915359500     96.9781494100     68.4220504800 
 C2505   6.0    71.5900039700     98.3095836600     69.5055246400 
 H2506   1.0    72.3217630400     97.6231098200     69.9314355900 
 H2507   1.0    70.8340835600     98.5287952400     70.2595996900 
 H2508   1.0    72.1516275400     99.2136764500     69.2703962300 
  H000    1.0    68.96674941186069  98.90078739382609  65.52383024809939 
  H000    1.0    72.00301433738734  97.90536628596173  63.432286872293574 
 $end 
 $comment Atoms to be erased:  $end

