 $contrl units=angs local=boys runtyp=makefp 
       mult=1 icharg=0 coord=cart icut=11 $end
 $system timlim=99999   mwords=200 $end
 $scf soscf=.f. dirscf=.t. diis=.t. CONV=1.0d-06  $end
 $basis gbasis=n31 ngauss=6 ndfunc=1 $end
 $DAMP IFTTYP(1)=2,0 IFTFIX(1)=1,1 thrsh=500.0 $end
 $MAKEFP  POL=.t. DISP=.f. CHTR=.f.  EXREP=.f. $end
 $data
 i_172
 C1
 C2628   6.0    67.2020196900     89.2716980000     64.2597293900 
 O2629   8.0    68.1128978700     88.4643173200     64.0433120700 
 N2630   7.0    67.0701074600     89.9594116200     65.4310989400 
 H2631   1.0    66.4728260000     90.7732391400     65.4634141900 
 C2632   6.0    67.9140806200     89.6810531600     66.6379737900 
 H2633   1.0    68.8954639400     89.7045898400     66.1642265300 
 C2634   6.0    67.7197456400     90.7961463900     67.6773786500 
 H2635   1.0    67.8691387200     91.7317104300     67.1383905400 
 C2636   6.0    66.3046026200     90.9003067000     68.3493423500 
 H2637   1.0    65.5421686200     91.2521553000     67.6543521900 
 H2638   1.0    66.3375139200     91.6856193500     69.1045379600 
 H2639   1.0    66.0726356500     89.9319171900     68.7926054000 
 C2640   6.0    68.7120008500     90.8130455000     68.8292789500 
 H2641   1.0    68.6855411500     90.0173473400     69.5737695700 
 H2642   1.0    68.5777568800     91.7280387900     69.4062328300 
 C2643   6.0    70.1753616300     90.7437896700     68.3571767800 
 H2644   1.0    70.6131887400     90.5777168300     69.3414688100 
 H2645   1.0    70.4495430000     91.6697597500     67.8516912500 
 H2646   1.0    70.3459215200     89.9383735700     67.6428127300 
  H000    1.0    67.85541239081012  88.70285767231938  67.0892281820728 
  H000    1.0    66.50294149612664  89.47018785604784  63.4623396763111 
 $end 
 $comment Atoms to be erased:  $end

