 $contrl units=angs local=boys runtyp=makefp 
       mult=1 icharg=0 coord=cart icut=11 $end
 $system timlim=99999   mwords=200 $end
 $scf soscf=.f. dirscf=.t. diis=.t. CONV=1.0d-06  $end
 $basis gbasis=n31 ngauss=6 ndfunc=1 $end
 $DAMP IFTTYP(1)=2,0 IFTFIX(1)=1,1 thrsh=500.0 $end
 $MAKEFP  POL=.t. DISP=.f. CHTR=.f.  EXREP=.f. $end
 $data
 i_178
 C1
 C2747   6.0    73.8612985600     82.1211910200     69.2198133500 
 O2748   8.0    73.7395572700     82.5325584400     68.0998468400 
 N2749   7.0    74.7672891600     81.2088871000     69.5834302900 
 H2750   1.0    74.7499609000     80.9918975800     70.5696916600 
 C2751   6.0    76.0510730700     80.8630466500     68.8682270100 
 H2752   1.0    75.9374141700     81.0322570800     67.7974557900 
 C2753   6.0    77.2161960600     81.7125320400     69.4621515300 
 H2754   1.0    76.8785047500     82.7045440700     69.1622114200 
 C2755   6.0    77.2486639000     81.5228939100     71.0259008400 
 H2756   1.0    77.9585838300     82.2310924500     71.4531660100 
 H2757   1.0    77.4823236500     80.5250263200     71.3970756500 
 H2758   1.0    76.2794017800     81.8125820200     71.4317703200 
 C2759   6.0    78.5656547500     81.3538551300     68.6918449400 
 H2760   1.0    78.3652687100     81.3500404400     67.6204252200 
 H2761   1.0    78.9387083100     80.3660869600     68.9624738700 
 C2762   6.0    79.7315073000     82.3605442000     69.0393352500 
 H2763   1.0    79.3753957700     83.3906269100     69.0532732000 
 H2764   1.0    80.5166053800     82.3823547400     68.2835245100 
 H2765   1.0    80.2705955500     82.1865272500     69.9705743800 
  H000    1.0    76.31316458986329  79.81650893732085  68.86582893660085 
  H000    1.0    73.2138135760617  82.42342495068698  70.02811820976265 
 $end 
 $comment Atoms to be erased:  $end

