 $contrl units=angs local=boys runtyp=makefp 
       mult=1 icharg=0 coord=cart icut=11 $end
 $system timlim=99999   mwords=200 $end
 $scf soscf=.f. dirscf=.t. diis=.t. CONV=1.0d-06  $end
 $basis gbasis=n31 ngauss=6 ndfunc=1 $end
 $DAMP IFTTYP(1)=2,0 IFTFIX(1)=1,1 thrsh=500.0 $end
 $MAKEFP  POL=.t. DISP=.f. CHTR=.f.  EXREP=.f. $end
 $data
 i_192
 C1
 C2944   6.0    61.1329364800     81.5499973300     73.7448549300 
 O2945   8.0    61.1926126500     81.8441104900     74.9788475000 
 N2946   7.0    61.3552475000     82.4604511300     72.8195571900 
 H2947   1.0    61.2721586200     82.0557403600     71.8979263300 
 C2948   6.0    61.8760156600     83.8191318500     72.9515314100 
 H2949   1.0    61.7789125400     84.1936016100     73.9705753300 
 C2950   6.0    63.3591604200     83.9348983800     72.5284814800 
 H2951   1.0    63.3417177200     83.8626861600     71.4410162000 
 C2952   6.0    63.7822628000     85.3963947300     72.8937625900 
 H2953   1.0    64.8465156600     85.5711460100     72.7358532000 
 H2954   1.0    63.6768484100     85.6617546100     73.9456987400 
 H2955   1.0    63.3238267900     86.1492919900     72.2526073500 
 C2956   6.0    64.4843769100     82.8661537200     72.8140258800 
 H2957   1.0    65.4670381500     83.0794239000     72.3933219900 
 H2958   1.0    64.1579532600     81.9814491300     72.2673559200 
 C2959   6.0    64.6277523000     82.3378181500     74.3316221200 
 H2960   1.0    65.5325508100     81.7300033600     74.3299818000 
 H2961   1.0    63.7483978300     81.7541790000     74.6040630300 
 H2962   1.0    64.8532342900     83.2014083900     74.9572944600 
  H000    1.0    61.28299495926046  84.43252479373062  72.2912175114064 
  H000    1.0    60.68798146761807  80.60884113884977  73.46169603394374 
 $end 
 $comment Atoms to be erased:  $end

