 $contrl units=angs local=boys runtyp=makefp 
       mult=1 icharg=0 coord=cart icut=11 $end
 $system timlim=99999   mwords=200 $end
 $scf soscf=.f. dirscf=.t. diis=.t. CONV=1.0d-06  $end
 $basis gbasis=n31 ngauss=6 ndfunc=1 $end
 $DAMP IFTTYP(1)=2,0 IFTFIX(1)=1,1 thrsh=500.0 $end
 $MAKEFP  POL=.t. DISP=.f. CHTR=.f.  EXREP=.f. $end
 $data
 i_195
 C1
 C2998   6.0    60.4092931700     90.6929874400     70.3889846800 
 O2999   8.0    59.7851324100     90.5126190200     71.4774799300 
 N3000   7.0    61.1417579700     91.7992305800     70.3129291500 
 H3001   1.0    61.6883897800     91.9554328900     69.4781303400 
 C3002   6.0    61.5401887900     92.7422428100     71.3441944100 
 H3003   1.0    61.1825323100     92.3337459600     72.2893476500 
 C3004   6.0    63.0614519100     92.8253841400     71.5084552800 
 H3005   1.0    63.2367801700     93.5446262400     72.3084831200 
 C3006   6.0    63.5537242900     91.4107608800     71.9519662900 
 H3007   1.0    63.6186933500     90.7140064200     71.1162710200 
 H3008   1.0    62.8807926200     90.9418678300     72.6698732400 
 H3009   1.0    64.4808006300     91.5302181200     72.5126504900 
 C3010   6.0    63.7935257000     93.2778263100     70.2597665800 
 H3011   1.0    63.2516431800     94.0264129600     69.6817731900 
 H3012   1.0    63.9531183200     92.4852085100     69.5287418400 
 C3013   6.0    65.2023601500     93.7436485300     70.5575180100 
 H3014   1.0    65.6698608400     93.9824199700     69.6022510500 
 H3015   1.0    65.7287216200     92.8894424400     70.9833860400 
 H3016   1.0    65.2327251400     94.5805931100     71.2551736800 
  H000    1.0    61.1919832119419  93.75896250308732  71.24946933043998 
  H000    1.0    60.375474233882876  89.98320307746035  69.57719570627955 
 $end 
 $comment Atoms to be erased:  $end

