 $contrl units=angs local=boys runtyp=makefp 
       mult=1 icharg=0 coord=cart icut=11 $end
 $system timlim=99999   mwords=200 $end
 $scf soscf=.f. dirscf=.t. diis=.t. CONV=1.0d-06  $end
 $basis gbasis=n31 ngauss=6 ndfunc=1 $end
 $DAMP IFTTYP(1)=2,0 IFTFIX(1)=1,1 thrsh=500.0 $end
 $MAKEFP  POL=.t. DISP=.f. CHTR=.f.  EXREP=.f. $end
 $data
 i_59
 C1
 C871   6.0    74.1727924300     88.5326576200     97.1922111500 
 O872   8.0    74.6597480800     87.7838802300     98.0789947500 
 N873   7.0    74.2250156400     88.2136058800     95.8985900900 
 H874   1.0    73.7895870200     88.8567829100     95.2529716500 
 C875   6.0    74.8844242100     87.0478725400     95.3236579900 
 H876   1.0    75.2325487100     86.4511203800     96.1667442300 
 C877   6.0    73.8174152400     86.1477470400     94.6441459700 
 H878   1.0    72.9071950900     86.1132717100     95.2428245500 
 C879   6.0    73.4543895700     86.8370533000     93.3126258900 
 H880   1.0    72.5195980100     86.3892078400     92.9754066500 
 H881   1.0    74.2415857300     86.7467689500     92.5641059900 
 H882   1.0    73.1671428700     87.8844833400     93.4045600900 
 C883   6.0    74.3135547600     84.7637367200     94.3946266200 
 H884   1.0    74.8676395400     84.3493747700     95.2368927000 
 H885   1.0    75.1302909900     84.7834491700     93.6730575600 
 C886   6.0    73.3751440000     83.7023448900     93.9057540900 
 H887   1.0    73.8123464600     82.7567482000     93.5851478600 
 H888   1.0    72.8057766000     84.0427494000     93.0408668500 
 H889   1.0    72.7003336000     83.5355472600     94.7453498800 
  H000    1.0    75.7613798972383  87.25428619081893  94.73012532284848 
  H000    1.0    73.76205247259838  89.48272689209563  97.4965135739361 
 $end 
 $comment Atoms to be erased:  $end

