 $contrl units=angs local=boys runtyp=makefp 
       mult=1 icharg=0 coord=cart icut=11 $end
 $system timlim=99999   mwords=200 $end
 $scf soscf=.f. dirscf=.t. diis=.t. CONV=1.0d-06  $end
 $basis gbasis=n31 ngauss=6 ndfunc=1 $end
 $DAMP IFTTYP(1)=2,0 IFTFIX(1)=1,1 thrsh=500.0 $end
 $MAKEFP  POL=.t. DISP=.f. CHTR=.f.  EXREP=.f. $end
 $data
 i_66
 C1
 C973   6.0    90.4367256200     79.6462154400     81.8159484900 
 O974   8.0    90.6248664900     80.7754135100     81.3987350500 
 N975   7.0    91.1343002300     78.6217498800     81.4094734200 
 H976   1.0    90.9721088400     77.6917743700     81.7685699500 
 C977   6.0    92.0188045500     78.5959148400     80.2551460300 
 H978   1.0    92.0662117000     79.5829010000     79.7950220100 
 C979   6.0    93.4442615500     78.2493305200     80.7122993500 
 H980   1.0    93.3770752000     77.2138404800     81.0459518400 
 C981   6.0    94.4129276300     78.1658458700     79.5433187500 
 H982   1.0    94.1734409300     77.3852825200     78.8211965600 
 H983   1.0    95.4385948200     78.0145931200     79.8797750500 
 H984   1.0    94.5891666400     79.1225433300     79.0516042700 
 C985   6.0    94.0552234600     79.1037273400     81.8649482700 
 H986   1.0    94.0695381200     80.1463985400     81.5475654600 
 H987   1.0    95.1178264600     78.8961315200     81.9909477200 
 C988   6.0    93.3300495100     78.9096450800     83.1780433700 
 H989   1.0    94.0430069000     79.2609405500     83.9239502000 
 H990   1.0    93.1409359000     77.8477764100     83.3354377700 
 H991   1.0    92.4818229700     79.5655918100     83.3738517800 
  H000    1.0    91.62860610289488  77.95464863187614  79.48025137793742 
  H000    1.0    89.63474057451444  79.48467318116555  82.519271307082 
 $end 
 $comment Atoms to be erased:  $end

