 $contrl units=angs local=boys runtyp=makefp 
       mult=1 icharg=0 coord=cart icut=11 $end
 $system timlim=99999   mwords=200 $end
 $scf soscf=.f. dirscf=.t. diis=.t. CONV=1.0d-06  $end
 $basis gbasis=n31 ngauss=6 ndfunc=1 $end
 $DAMP IFTTYP(1)=2,0 IFTFIX(1)=1,1 thrsh=500.0 $end
 $MAKEFP  POL=.t. DISP=.f. CHTR=.f.  EXREP=.f. $end
 $data
 i_76
 C1
 C1136   6.0    82.0616340600     89.0258979800     88.0070686300 
 O1137   8.0    81.8435287500     89.9770355200     87.2639656100 
 N1138   7.0    81.0461330400     88.4559059100     88.7408256500 
 H1139   1.0    81.2554740900     87.5850868200     89.2076683000 
 C1140   6.0    79.7007513000     89.0717315700     88.7780571000 
 H1141   1.0    79.8491096500     90.1280593900     88.5538864100 
 C1142   6.0    78.8624572800     88.5511112200     87.5687217700 
 H1143   1.0    79.3368339500     88.7202167500     86.6020393400 
 C1144   6.0    78.7847518900     87.0025920900     87.6921081500 
 H1145   1.0    78.1640529600     86.5173912000     86.9388389600 
 H1146   1.0    78.3103323000     86.8040084800     88.6531448400 
 H1147   1.0    79.7575140000     86.5267372100     87.5681114200 
 C1148   6.0    77.4546575500     89.1851615900     87.6565551800 
 H1149   1.0    77.4986887000     90.2581310300     87.8433799700 
 H1150   1.0    76.8928670900     88.6176872300     88.3984947200 
 C1151   6.0    76.7268133200     89.1106605500     86.2440300000 
 H1152   1.0    77.3436307900     89.6147728000     85.5000495900 
 H1153   1.0    75.7462501500     89.5862770100     86.2242126500 
 H1154   1.0    76.5834474600     88.0619621300     85.9836959800 
  H000    1.0    79.20769127985396  89.1597306447  89.73361289585158 
  H000    1.0    83.00622521815663  88.50499790194385  88.02576494550411 
 $end 
 $comment Atoms to be erased:  $end

