 $contrl units=angs local=boys runtyp=makefp 
       mult=1 icharg=0 coord=cart icut=11 $end
 $system timlim=99999   mwords=200 $end
 $scf soscf=.f. dirscf=.t. diis=.t. CONV=1.0d-06  $end
 $basis gbasis=n31 ngauss=6 ndfunc=1 $end
 $DAMP IFTTYP(1)=2,0 IFTFIX(1)=1,1 thrsh=500.0 $end
 $MAKEFP  POL=.t. DISP=.f. CHTR=.f.  EXREP=.f. $end
 $data
 i_80
 C1
 C1192   6.0    70.3191041900     92.1312904400     93.9215660100 
 O1193   8.0    69.9350309400     92.6240158100     92.8579139700 
 N1194   7.0    69.6651649500     91.1375045800     94.5874214200 
 H1195   1.0    70.0003337900     90.8219814300     95.4864120500 
 C1196   6.0    68.3734273900     90.5136108400     94.1384697000 
 H1197   1.0    67.9086494400     91.1183261900     93.3597564700 
 C1198   6.0    68.4723854100     89.0544891400     93.6809349100 
 H1199   1.0    68.6148023600     88.4129238100     94.5505523700 
 C1200   6.0    67.2068786600     88.5647296900     92.9544258100 
 H1201   1.0    67.2295522700     87.5140667000     92.6650619500 
 H1202   1.0    66.9809484500     89.0732193000     92.0171546900 
 H1203   1.0    66.3268804600     88.7111091600     93.5807418800 
 C1204   6.0    69.6220064200     88.7307262400     92.7396774300 
 H1205   1.0    70.5165004700     89.1803169300     93.1707763700 
 H1206   1.0    69.3567037600     89.1269874600     91.7595100400 
 C1207   6.0    69.7966480300     87.2302436800     92.4880790700 
 H1208   1.0    68.9793062200     86.8769073500     91.8594169600 
 H1209   1.0    69.8553848300     86.6192150100     93.3887863200 
 H1210   1.0    70.6864023200     86.9692230200     91.9150924700 
  H000    1.0    67.66063187969273  90.56097539956767  94.94693618575111 
  H000    1.0    71.19528264883259  92.48998058257291  94.43885856697216 
 $end 
 $comment Atoms to be erased:  $end

