 $contrl units=angs local=boys runtyp=makefp 
       mult=1 icharg=0 coord=cart icut=11 $end
 $system timlim=99999   mwords=200 $end
 $scf soscf=.f. dirscf=.t. diis=.t. CONV=1.0d-06  $end
 $basis gbasis=n31 ngauss=6 ndfunc=1 $end
 $DAMP IFTTYP(1)=2,0 IFTFIX(1)=1,1 thrsh=500.0 $end
 $MAKEFP  POL=.t. DISP=.f. CHTR=.f.  EXREP=.f. $end
 $data
 i_862
 C1
 C15259   6.0    86.2348175000     79.8085784900     64.0858078000 
 O15260   8.0    85.7686233500     79.8751640300     62.8987407700 
 N15261   7.0    85.9478664400     78.8100528700     64.8516368900 
 H15262   1.0    86.3591575600     78.7100410500     65.7686662700 
 C15263   6.0    85.1857566800     77.6149272900     64.4324922600 
 H15264   1.0    85.3854274700     77.4020195000     63.3823013300 
 C15265   6.0    85.4760170000     76.3898658800     65.3797531100 
 H15266   1.0    85.1408767700     76.6331863400     66.3880109800 
 C15267   6.0    84.8171424900     75.1088237800     64.8514795300 
 H15268   1.0    85.3591156000     74.6227359800     64.0402507800 
 H15269   1.0    83.7676239000     75.2774620100     64.6103286700 
 H15270   1.0    84.8400688200     74.3471336400     65.6308221800 
 C15271   6.0    87.0183754000     76.2265682200     65.4282903700 
 H15272   1.0    87.4140548700     77.1620464300     65.8237981800 
 H15273   1.0    87.3159790000     76.0827636700     64.3896055200 
 C15274   6.0    87.6404857600     75.0895118700     66.2680816700 
 H15275   1.0    87.1579170200     74.1449737500     66.0169506100 
 H15276   1.0    87.4175071700     75.2817249300     67.3175764100 
 H15277   1.0    88.6880302400     75.0334549000     65.9721183800 
  H000    1.0    84.15583892712296  77.91384570003444  64.31478029777364 
  H000    1.0    86.86549318540641  80.59387453174449  64.47245648583458 
 $end 
 $comment Atoms to be erased:  $end

