 $contrl units=angs local=boys runtyp=makefp 
       mult=1 icharg=0 coord=cart icut=11 $end
 $system timlim=99999   mwords=200 $end
 $scf soscf=.f. dirscf=.t. diis=.t. CONV=1.0d-06  $end
 $basis gbasis=n31 ngauss=6 ndfunc=1 $end
 $DAMP IFTTYP(1)=2,0 IFTFIX(1)=1,1 thrsh=500.0 $end
 $MAKEFP  POL=.t. DISP=.f. CHTR=.f.  EXREP=.f. $end
 $data
 l_141
 C1
 C2159   6.0    67.2570716100     96.5620289400     81.3144336800 
 O2160   8.0    66.6118414400     97.4871264900     80.7524489200 
 N2161   7.0    68.4882764700     96.7629687400     81.8921914700 
 H2162   1.0    68.8302701500     96.0352830500     82.5034431800 
 C2163   6.0    69.3922889000     97.8932210300     81.7750597500 
 H2164   1.0    69.1581180000     98.3460274200     80.8116144800 
 C2165   6.0    69.0576864800     98.9110648400     82.8550817400 
 H2166   1.0    69.2125397600     98.2940634900     83.7402109800 
 H2167   1.0    68.0218336500     99.2435085600     82.7871605000 
 C2168   6.0    70.0180471200    100.1419305200     83.1009202700 
 H2169   1.0    69.4348632200    100.8634755300     83.6730891900 
 C2170   6.0    71.3448627900     99.8649626400     83.8879919300 
 H2171   1.0    71.1424442700     99.6790628400     84.9427804200 
 H2172   1.0    71.9183250600    100.7893444500     83.8188876600 
 H2173   1.0    71.9554220200     99.0957909500     83.4150438500 
 C2174   6.0    70.2844102300    100.9072189200     81.8548614500 
 H2175   1.0    70.9109542600    101.7703365400     82.0797574700 
 H2176   1.0    69.2860846600    101.2085534100     81.5375721800 
 H2177   1.0    70.8436854000    100.2071698300     81.2341502500 
  H000    1.0    70.40069572767415  97.52001556127495  81.86322010171133 
  H000    1.0    66.92763655203284  95.53692099077226  81.2468679001092 
 $end 
 $comment Atoms to be erased:  $end

