 $contrl units=angs local=boys runtyp=makefp 
       mult=1 icharg=1 coord=cart icut=11 $end
 $system timlim=99999   mwords=200 $end
 $scf soscf=.f. dirscf=.t. diis=.t. CONV=1.0d-06  $end
 $basis gbasis=n31 ngauss=6 ndfunc=1 $end
 $DAMP IFTTYP(1)=2,0 IFTFIX(1)=1,1 thrsh=500.0 $end
 $MAKEFP  POL=.t. DISP=.f. CHTR=.f.  EXREP=.f. $end
 $data
 l_143
 C1
 C2195   6.0    73.8466858600     98.6186006300     80.2457211200 
 O2196   8.0    73.5314041800     99.0829371100     79.1856444600 
 N2197   7.0    74.9232614500     99.0449141100     80.8850480500 
 H2198   1.0    75.1528358900     98.5379385500     81.7278909300 
 C2199   6.0    75.6765732700    100.2816543100     80.5156108400 
 H2200   1.0    75.5662752500    100.4589046000     79.4457876700 
 C2201   6.0    75.1568904900    101.4431887300     81.3265238400 
 H2202   1.0    74.1210803100    101.5564289800     81.0064884100 
 H2203   1.0    75.7116651800    102.3311685600     81.0235011100 
 C2204   6.0    75.2572990200    101.3490041100     82.7711763000 
 H2205   1.0    76.2925940700    101.0693181300     82.9662607600 
 H2206   1.0    74.6313941900    100.5241960500     83.1118311900 
 C2207   6.0    74.9008146700    102.6630794100     83.5386586000 
 H2208   1.0    73.8537511500    102.8660228100     83.3137621700 
 H2209   1.0    75.5857283000    103.3892292600     83.1008238200 
 C2210   6.0    75.0370671800    102.4123579100     85.0662621600 
 H2211   1.0    76.0902533200    102.2456257200     85.2923220500 
 H2212   1.0    74.5135635700    101.4859542800     85.3026036500 
 N2213   7.0    74.5462379100    103.4321470200     85.9877066600 
 H2214   1.0    73.5807521300    103.6430059100     85.7792134900 
 H2215   1.0    75.0174226400    104.3059934400     85.8020055900 
 H2216   1.0    74.5997728400    103.1470165100     86.9551381400 
  H000    1.0    76.73659609855291  100.12541333496507  80.64162377690269 
  H000    1.0    73.27911827670357  97.7988917138055  80.65789005466429 
 $end 
 $comment Atoms to be erased:  $end

