 $contrl units=angs local=boys runtyp=makefp 
       mult=1 icharg=0 coord=cart icut=11 $end
 $system timlim=99999   mwords=200 $end
 $scf soscf=.f. dirscf=.t. diis=.t. CONV=1.0d-06  $end
 $basis gbasis=n31 ngauss=6 ndfunc=1 $end
 $DAMP IFTTYP(1)=2,0 IFTFIX(1)=1,1 thrsh=500.0 $end
 $MAKEFP  POL=.t. DISP=.f. CHTR=.f.  EXREP=.f. $end
 $data
 l_146
 C1
 C2247   6.0    82.7834892300    102.8087234500     77.9033899300 
 O2248   8.0    82.9310607900    101.7175006900     77.3243761100 
 N2249   7.0    82.9971218100    103.9680004100     77.2324037600 
 H2250   1.0    82.7198028600    104.8426246600     77.6545763000 
 C2251   6.0    83.2979202300    104.0895080600     75.7821703000 
 H2252   1.0    83.3349418600    103.1205654100     75.2843046200 
 C2253   6.0    82.2667884800    104.9460697200     75.0214910500 
 H2254   1.0    82.6042366000    105.0306892400     73.9885044100 
 H2255   1.0    82.1363639800    105.9495639800     75.4265785200 
 C2256   6.0    80.8546543100    104.4002533000     75.1074695600 
 H2257   1.0    80.5798053700    104.1877365100     76.1406183200 
 C2258   6.0    79.8521661800    105.4480266600     74.6500825900 
 H2259   1.0    79.8947715800    106.4031982400     75.1734495200 
 H2260   1.0    78.8365650200    105.0585174600     74.5798158600 
 H2261   1.0    80.1807594300    105.7120704700     73.6448860200 
 C2262   6.0    80.5782890300    103.2117176100     74.1339206700 
 H2263   1.0    79.6842575100    102.6604843100     74.4253683100 
 H2264   1.0    81.4451694500    102.5512409200     74.1538524600 
 H2265   1.0    80.5716133100    103.5549640700     73.0993938400 
  H000    1.0    84.2978263772138  104.47476549277572  75.65685746404475 
  H000    1.0    82.45810519002386  102.78839893831342  78.93181155577102 
 $end 
 $comment Atoms to be erased:  $end

