 $contrl units=angs local=boys runtyp=makefp 
       mult=1 icharg=0 coord=cart icut=11 $end
 $system timlim=99999   mwords=200 $end
 $scf soscf=.f. dirscf=.t. diis=.t. CONV=1.0d-06  $end
 $basis gbasis=n31 ngauss=6 ndfunc=1 $end
 $DAMP IFTTYP(1)=2,0 IFTFIX(1)=1,1 thrsh=500.0 $end
 $MAKEFP  POL=.t. DISP=.f. CHTR=.f.  EXREP=.f. $end
 $data
 l_151
 C1
 C2318   6.0    85.9660339400     99.6363449100     70.7306385000 
 O2319   8.0    85.1494407700     99.1972446400     69.9418211000 
 N2320   7.0    85.6704139700    100.1362419100     71.9304895400 
 H2321   1.0    86.4968967400    100.3404712700     72.4739217800 
 C2322   6.0    84.4052696200    100.1772403700     72.5592517900 
 H2323   1.0    83.9406013500     99.1967678100     72.4551296200 
 C2324   6.0    84.5327568100    100.4532146500     74.0759229700 
 H2325   1.0    83.6338043200    100.9307575200     74.4657325700 
 H2326   1.0    85.4330825800    101.0486221300     74.2275810200 
 C2327   6.0    84.7469139100     99.1017150900     74.8697996100 
 H2328   1.0    85.4483890500     98.4856987000     74.3071651500 
 C2329   6.0    85.4782104500     99.2037677800     76.2089777000 
 H2330   1.0    85.0487136800     99.9065399200     76.9229412100 
 H2331   1.0    86.5125656100     99.5193672200     76.0725164400 
 H2332   1.0    85.4100036600     98.1976985900     76.6228294400 
 C2333   6.0    83.4743690500     98.2829856900     74.9337053300 
 H2334   1.0    83.0092620800     97.9351806600     74.0113163000 
 H2335   1.0    82.7908325200     98.8284778600     75.5843114900 
 H2336   1.0    83.6009788500     97.3297786700     75.4469966900 
  H000    1.0    83.73135037258704  100.90380851343943  72.1327890360515 
  H000    1.0    86.99052509630472  99.62628834409573  70.3926212878116 
 $end 
 $comment Atoms to be erased:  $end

