 $contrl units=angs local=boys runtyp=makefp 
       mult=1 icharg=1 coord=cart icut=11 $end
 $system timlim=99999   mwords=200 $end
 $scf soscf=.f. dirscf=.t. diis=.t. CONV=1.0d-06  $end
 $basis gbasis=n31 ngauss=6 ndfunc=1 $end
 $DAMP IFTTYP(1)=2,0 IFTFIX(1)=1,1 thrsh=500.0 $end
 $MAKEFP  POL=.t. DISP=.f. CHTR=.f.  EXREP=.f. $end
 $data
 l_160
 C1
 C2458   6.0    72.8009700800    101.5804672200     65.8434438700 
 O2459   8.0    71.6042375600    101.4945983900     65.6625413900 
 N2460   7.0    73.6386585200    101.6578388200     64.8171758700 
 H2461   1.0    74.6045255700    101.8480300900     65.0430870100 
 C2462   6.0    73.3370685600    101.6159248400     63.3727932000 
 H2463   1.0    72.7386522300    102.4636840800     63.0391645400 
 C2464   6.0    74.6775245700    101.5989112900     62.6303434400 
 H2465   1.0    75.1585626600    100.6504154200     62.8692627000 
 H2466   1.0    75.2524852800    102.4210929900     63.0563879000 
 C2467   6.0    74.3999815000    101.6630363500     61.1104059200 
 H2468   1.0    73.5231494900    102.2966766400     60.9771251700 
 H2469   1.0    74.1741514200    100.6512165100     60.7737684200 
 C2470   6.0    75.5730867400    102.1345710800     60.2155256300 
 H2471   1.0    75.6942510600    103.1888961800     60.4641389800 
 H2472   1.0    75.3455209700    102.0271492000     59.1549730300 
 C2473   6.0    76.9190263700    101.4917278300     60.5040836300 
 H2474   1.0    77.0173454300    100.4354572300     60.2536535300 
 H2475   1.0    77.0949125300    101.7284297900     61.5534353300 
 N2476   7.0    77.9853820800    102.0217323300     59.6619606000 
 H2477   1.0    78.0554866800    101.4387226100     58.8401985200 
 H2478   1.0    78.9144086800    102.0355701400     60.0579643200 
 H2479   1.0    77.8360223800    102.9986763000     59.4536590600 
  H000    1.0    72.86753674506915  100.686660594896  63.09004465952808 
  H000    1.0    73.22446416101238  101.49129697156503  66.83169501709851 
 $end 
 $comment Atoms to be erased:  $end

