 $contrl units=angs local=boys runtyp=makefp 
       mult=1 icharg=0 coord=cart icut=11 $end
 $system timlim=99999   mwords=200 $end
 $scf soscf=.f. dirscf=.t. diis=.t. CONV=1.0d-06  $end
 $basis gbasis=n31 ngauss=6 ndfunc=1 $end
 $DAMP IFTTYP(1)=2,0 IFTFIX(1)=1,1 thrsh=500.0 $end
 $MAKEFP  POL=.t. DISP=.f. CHTR=.f.  EXREP=.f. $end
 $data
 l_185
 C1
 C2841   6.0    67.8763294200     73.9742660500     72.7729225200 
 O2842   8.0    67.2243452100     73.4102821400     73.6032247500 
 N2843   7.0    67.5523090400     75.1431369800     72.2156763100 
 H2844   1.0    68.1426525100     75.4930591600     71.4746284500 
 C2845   6.0    66.3098096800     75.8851242100     72.4451065100 
 H2846   1.0    66.3532829300     76.0616588600     73.5198354700 
 C2847   6.0    66.4568376500     77.1951580000     71.6674041700 
 H2848   1.0    66.5076828000     76.9329357100     70.6106376600 
 H2849   1.0    67.3572492600     77.6419067400     72.0890426600 
 C2850   6.0    65.3190422100     78.2424259200     71.9082164800 
 H2851   1.0    64.4006824500     77.6929950700     71.7012596100 
 C2852   6.0    65.2126026200     78.8711738600     73.2916402800 
 H2853   1.0    66.0212802900     79.5829868300     73.4573316600 
 H2854   1.0    65.3414773900     78.0077838900     73.9443635900 
 H2855   1.0    64.2545175600     79.3821430200     73.3869314200 
 C2856   6.0    65.5341386800     79.2841243700     70.8370542500 
 H2857   1.0    65.7875490200     78.8636493700     69.8638629900 
 H2858   1.0    66.4365339300     79.8750782000     70.9937620200 
 H2859   1.0    64.6470117600     79.8896789600     70.6515789000 
  H000    1.0    65.45723932452324  75.28218058656326  72.17395770303376 
  H000    1.0    68.74026825606848  73.49991406597503  72.33413010622755 
 $end 
 $comment Atoms to be erased:  $end

