 $contrl units=angs local=boys runtyp=makefp 
       mult=1 icharg=0 coord=cart icut=11 $end
 $system timlim=99999   mwords=200 $end
 $scf soscf=.f. dirscf=.t. diis=.t. CONV=1.0d-06  $end
 $basis gbasis=n31 ngauss=6 ndfunc=1 $end
 $DAMP IFTTYP(1)=2,0 IFTFIX(1)=1,1 thrsh=500.0 $end
 $MAKEFP  POL=.t. DISP=.f. CHTR=.f.  EXREP=.f. $end
 $data
 l_200
 C1
 C3069   6.0    67.5508785200    102.8963184400     75.0818634000 
 O3070   8.0    67.9081106200    101.7665958400     75.4036378900 
 N3071   7.0    68.2828998600    103.8424968700     74.5624923700 
 H3072   1.0    68.0288267100    104.8183441200     74.6196270000 
 C3073   6.0    69.5303773900    103.6159610700     73.9287519500 
 H3074   1.0    70.1401281400    102.8895950300     74.4660615900 
 C3075   6.0    69.1946935700    102.9011154200     72.5232505800 
 H3076   1.0    68.5917615900    103.5626888300     71.9012451200 
 H3077   1.0    68.4638929400    102.0966053000     72.6056671100 
 C3078   6.0    70.3544139900    102.3764324200     71.7010068900 
 H3079   1.0    71.2219715100    103.0267238600     71.8131351500 
 C3080   6.0    70.6982755700    100.9761428800     72.1582889600 
 H3081   1.0    69.7760772700    100.4054164900     72.0490741700 
 H3082   1.0    71.0112381000    100.8589553800     73.1957960100 
 H3083   1.0    71.4035749400    100.4932022100     71.4819622000 
 C3084   6.0    70.0913333900    102.4308967600     70.1899004000 
 H3085   1.0    70.9515667000    101.8611621900     69.8384857200 
 H3086   1.0    70.2390289300    103.4526634200     69.8402166400 
 H3087   1.0    69.1846990600    101.9488620800     69.8241853700 
  H000    1.0    70.0140811871558  104.57877511602233  73.87435848532674 
  H000    1.0    66.52987988158364  103.17316910545325  75.29365194782552 
 $end 
 $comment Atoms to be erased:  $end

