 $contrl units=angs local=boys runtyp=makefp 
       mult=1 icharg=1 coord=cart icut=11 $end
 $system timlim=99999   mwords=200 $end
 $scf soscf=.f. dirscf=.t. diis=.t. CONV=1.0d-06  $end
 $basis gbasis=n31 ngauss=6 ndfunc=1 $end
 $DAMP IFTTYP(1)=2,0 IFTFIX(1)=1,1 thrsh=500.0 $end
 $MAKEFP  POL=.t. DISP=.f. CHTR=.f.  EXREP=.f. $end
 $data
 l_207
 C1
 C3163   6.0    85.8981895400    110.4668521900     84.8574638400 
 O3164   8.0    86.7688942000    110.8931160000     84.1757011400 
 N3165   7.0    85.6229591400    109.1767215700     84.8717308000 
 H3166   1.0    84.7708797500    108.8605022400     85.3122329700 
 C3167   6.0    86.3974762000    108.1477737400     84.1190910300 
 H3168   1.0    87.4488544500    108.4331417100     84.1547584500 
 C3169   6.0    86.1602592500    106.7211818700     84.6443557700 
 H3170   1.0    86.7308998100    105.9750843000     84.0913391100 
 H3171   1.0    85.0951480900    106.5023994400     84.5683097800 
 C3172   6.0    86.5538883200    106.5966796900     86.1073112500 
 H3173   1.0    85.8041000400    107.2300910900     86.5813446000 
 H3174   1.0    87.5568389900    107.0113849600     86.2082099900 
 C3175   6.0    86.5550804100    105.1895332300     86.7120361300 
 H3176   1.0    87.0074081400    104.4633197800     86.0366821300 
 H3177   1.0    85.5702781700    104.7323036200     86.8080711400 
 C3178   6.0    87.2344970700    105.0043773700     88.0744361900 
 H3179   1.0    87.1018791200    104.0125846900     88.5067176800 
 H3180   1.0    86.7928695700    105.7467842100     88.7392044100 
 N3181   7.0    88.6782646200    105.3163242300     87.9932785000 
 H3182   1.0    88.9325714100    105.3015422800     88.9706420900 
 H3183   1.0    88.8970756500    106.2394332900     87.6467323300 
 H3184   1.0    89.0822982800    104.5507240300     87.4729728700 
  H000    1.0    86.21959703717556  108.22226906745733  83.05760699845742 
  H000    1.0    85.21614921431973  111.1556669264152  85.33106087614274 
 $end 
 $comment Atoms to be erased:  $end

