 $contrl units=angs local=boys runtyp=makefp 
       mult=1 icharg=0 coord=cart icut=11 $end
 $system timlim=99999   mwords=200 $end
 $scf soscf=.f. dirscf=.t. diis=.t. CONV=1.0d-06  $end
 $basis gbasis=n31 ngauss=6 ndfunc=1 $end
 $DAMP IFTTYP(1)=2,0 IFTFIX(1)=1,1 thrsh=500.0 $end
 $MAKEFP  POL=.t. DISP=.f. CHTR=.f.  EXREP=.f. $end
 $data
 l_36
 C1
 C507   6.0    87.7805042300     71.8775749200     68.8489246400 
 O508   8.0    88.4869766200     72.1072387700     67.8246593500 
 N509   7.0    88.1482791900     72.1357059500     70.1272201500 
 H510   1.0    87.5454330400     71.6873264300     70.8022260700 
 C511   6.0    89.3529129000     72.9226589200     70.5524683000 
 H512   1.0    90.1403236400     72.7625560800     69.8159647000 
 C513   6.0    89.0305137600     74.3855571700     70.5101203900 
 H514   1.0    88.0863380400     74.4062042200     71.0543727900 
 H515   1.0    88.8534641300     74.7106456800     69.4849014300 
 C516   6.0    90.1232147200     75.4320430800     70.9956693600 
 H517   1.0    90.3182411200     75.1839828500     72.0389938400 
 C518   6.0    91.2658214600     75.4308128400     70.0815010100 
 H519   1.0    91.0773277300     75.7071113600     69.0440893200 
 H520   1.0    91.5415668500     74.3839836100     69.9541664100 
 H521   1.0    92.0502471900     75.9902668000     70.5911922500 
 C522   6.0    89.3670082100     76.8065547900     71.0651397700 
 H523   1.0    89.2701149000     77.2457218200     70.0722456000 
 H524   1.0    89.8345756500     77.5359439800     71.7265605900 
 H525   1.0    88.3302688600     76.7565631900     71.3979721100 
  H000    1.0    89.69233486292994  72.67567220572656  71.54631395886922 
  H000    1.0    86.8405731451438  71.35640892336083  68.75482650363101 
 $end 
 $comment Atoms to be erased:  $end

