 $contrl units=angs local=boys runtyp=makefp 
       mult=1 icharg=1 coord=cart icut=11 $end
 $system timlim=99999   mwords=200 $end
 $scf soscf=.f. dirscf=.t. diis=.t. CONV=1.0d-06  $end
 $basis gbasis=n31 ngauss=6 ndfunc=1 $end
 $DAMP IFTTYP(1)=2,0 IFTFIX(1)=1,1 thrsh=500.0 $end
 $MAKEFP  POL=.t. DISP=.f. CHTR=.f.  EXREP=.f. $end
 $data
 l_71
 C1
 C1045   6.0    93.0485820800     81.4886570000     77.5444746000 
 O1046   8.0    92.0468616500     80.7867908500     77.7612257000 
 N1047   7.0    93.6657619500     82.1326828000     78.5320901900 
 H1048   1.0    94.4140911100     82.7565097800     78.2657575600 
 C1049   6.0    92.9872322100     82.5249481200     79.7608614000 
 H1050   1.0    92.4648094200     81.6170501700     80.0623703000 
 C1051   6.0    93.9146328000     83.0195045500     80.8979606600 
 H1052   1.0    94.6828746800     82.2734928100     81.1013603200 
 H1053   1.0    93.3413791700     83.0117797900     81.8250083900 
 C1054   6.0    94.6206665000     84.3512249000     80.4846191400 
 H1055   1.0    93.8878345500     85.1557159400     80.5467987100 
 H1056   1.0    95.0892639200     84.4169330600     79.5026826900 
 C1057   6.0    95.7079029100     84.6108532000     81.5450668300 
 H1058   1.0    96.5913200400     83.9997005500     81.3602066000 
 H1059   1.0    95.3859901400     84.3828296700     82.5611877400 
 C1060   6.0    96.3435173000     86.0141563400     81.5616798400 
 H1061   1.0    95.5995941200     86.6206550600     82.0782470700 
 H1062   1.0    96.4540100100     86.3621616400     80.5346679700 
 N1063   7.0    97.4952030200     86.0670661900     82.4482345600 
 H1064   1.0    97.5680732700     87.0157241800     82.7871131900 
 H1065   1.0    98.3618259400     85.8271884900     81.9883155800 
 H1066   1.0    97.3772049000     85.4848671000     83.2650566100 
  H000    1.0    92.15050467224981  83.18253616431285  79.58364996936612 
  H000    1.0    93.40623055788365  81.67168288269973  76.54321140177014 
 $end 
 $comment Atoms to be erased:  $end

