 $contrl units=angs local=boys runtyp=makefp 
       mult=1 icharg=1 coord=cart icut=11 $end
 $system timlim=99999   mwords=200 $end
 $scf soscf=.f. dirscf=.t. diis=.t. CONV=1.0d-06  $end
 $basis gbasis=n31 ngauss=6 ndfunc=1 $end
 $DAMP IFTTYP(1)=2,0 IFTFIX(1)=1,1 thrsh=500.0 $end
 $MAKEFP  POL=.t. DISP=.f. CHTR=.f.  EXREP=.f. $end
 $data
 l_73
 C1
 C1081   6.0    88.8648033100     84.1397857700     81.7875862100 
 O1082   8.0    89.3360328700     83.4252739000     82.7079200700 
 N1083   7.0    87.8894233700     85.0338840500     82.0447158800 
 H1084   1.0    87.8332233400     85.8220100400     81.4155960100 
 C1085   6.0    87.3449420900     85.2425479900     83.4039688100 
 H1086   1.0    87.0573616000     84.2999744400     83.8697433500 
 C1087   6.0    88.3965492200     85.9045791600     84.3579292300 
 H1088   1.0    88.2935237900     86.9766616800     84.1901969900 
 H1089   1.0    89.3931770300     85.5001068100     84.1811752300 
 C1090   6.0    88.0849647500     85.8037948600     85.8223342900 
 H1091   1.0    88.1349372900     84.7688388800     86.1606788600 
 H1092   1.0    87.0144462600     85.9293460800     85.9846305800 
 C1093   6.0    89.0626907300     86.5895175900     86.6766166700 
 H1094   1.0    88.9127159100     87.6567935900     86.5137481700 
 H1095   1.0    90.0153350800     86.2856006600     86.2428093000 
 C1096   6.0    88.8590240500     86.2403774300     88.1527328500 
 H1097   1.0    88.9148902900     85.1649475100     88.3212852500 
 H1098   1.0    87.9294872300     86.6910934400     88.5004806500 
 N1099   7.0    89.8835563700     86.8869972200     88.9779090900 
 H1100   1.0    89.5482063300     86.8997573900     89.9305152900 
 H1101   1.0    90.1231193500     87.8105354300     88.6466217000 
 H1102   1.0    90.7508564000     86.3701725000     88.9498329200 
  H000    1.0    86.43811665965013  85.82079188622455  83.31887747701107 
  H000    1.0    89.32406708879961  84.13907078047079  80.81136125135949 
 $end 
 $comment Atoms to be erased:  $end

