 $contrl units=angs local=boys runtyp=makefp 
       mult=1 icharg=0 coord=cart icut=11 $end
 $system timlim=99999   mwords=200 $end
 $scf soscf=.f. dirscf=.t. diis=.t. CONV=1.0d-06  $end
 $basis gbasis=n31 ngauss=6 ndfunc=1 $end
 $DAMP IFTTYP(1)=2,0 IFTFIX(1)=1,1 thrsh=500.0 $end
 $MAKEFP  POL=.t. DISP=.f. CHTR=.f.  EXREP=.f. $end
 $data
 l_74
 C1
 C1103   6.0    86.0334587100     86.0788250000     83.2809066800 
 O1104   8.0    85.9840393100     86.9833755500     82.4555778500 
 N1105   7.0    85.0629234300     85.8373165100     84.2422294600 
 H1106   1.0    85.2706909200     85.1292324100     84.9318313600 
 C1107   6.0    83.8510131800     86.7282676700     84.5167732200 
 H1108   1.0    84.1299152400     87.7056980100     84.1231346100 
 C1109   6.0    82.6160812400     86.1082458500     83.8097763100 
 H1110   1.0    82.4271011400     85.0887298600     84.1458892800 
 H1111   1.0    82.6784515400     86.0651779200     82.7224159200 
 C1112   6.0    81.3579654700     86.8994808200     84.1581535300 
 H1113   1.0    81.3420486500     87.3375034300     85.1561546300 
 C1114   6.0    81.1705303200     87.9951667800     83.0462265000 
 H1115   1.0    82.0358848600     88.6557197600     82.9921340900 
 H1116   1.0    80.3081321700     88.6295223200     83.2510376000 
 H1117   1.0    81.1648082700     87.5475502000     82.0523834200 
 C1118   6.0    80.0544261900     86.0700416600     84.0928268400 
 H1119   1.0    80.0431251500     85.2446556100     84.8046684300 
 H1120   1.0    79.8246526700     85.6997108500     83.0937576300 
 H1121   1.0    79.1917896300     86.7304801900     84.1811180100 
  H000    1.0    83.69148555168508  86.80453847764919  85.58104414382755 
  H000    1.0    86.94028414034987  85.50058110377545  83.36599801298892 
 $end 
 $comment Atoms to be erased:  $end

