 $contrl units=angs local=boys runtyp=makefp 
       mult=1 icharg=0 coord=cart icut=11 $end
 $system timlim=99999   mwords=200 $end
 $scf soscf=.f. dirscf=.t. diis=.t. CONV=1.0d-06  $end
 $basis gbasis=n31 ngauss=6 ndfunc=1 $end
 $DAMP IFTTYP(1)=2,0 IFTFIX(1)=1,1 thrsh=500.0 $end
 $MAKEFP  POL=.t. DISP=.f. CHTR=.f.  EXREP=.f. $end
 $data
 m_864
 C1
 C15299   6.0    81.3709640500     80.4873466500     64.9853563300 
 O15300   8.0    80.3206634500     81.0951805100     65.2197074900 
 N15301   7.0    82.3009395600     81.0149574300     64.1710043000 
 H15302   1.0    83.1945133200     80.5460262300     64.1294479400 
 C15303   6.0    82.1622467000     82.3529338800     63.6061716100 
 H15304   1.0    82.0854759200     83.0214500400     64.4636583300 
 C15305   6.0    83.3532524100     82.7050399800     62.7136182800 
 H15306   1.0    83.3876419100     82.0859718300     61.8171501200 
 H15307   1.0    84.2529678300     82.4704170200     63.2824420900 
 C15308   6.0    83.4633922600     84.1303062400     62.2939968100 
 H15309   1.0    82.5421905500     84.4243431100     61.7909956000 
 H15310   1.0    84.1599845900     84.2913913700     61.4712572100 
 S15311   16.0    83.6844444300     85.2977085100     63.6333847000 
 C15312   6.0    84.1545867900     86.8343448600     62.7907609900 
 H15313   1.0    83.3635520900     87.1421241800     62.1069240600 
 H15314   1.0    85.1054191600     86.6960334800     62.2760629700 
 H15315   1.0    84.3210983300     87.7073097200     63.4218692800 
  H000    1.0    81.24567512626669  82.40336032772692  63.0393448082398 
  H000    1.0    81.56574412209594  79.48438762332093  65.33187157341254 
 $end 
 $comment Atoms to be erased:  $end

