 $contrl units=angs local=boys runtyp=makefp 
       mult=1 icharg=0 coord=cart icut=11 $end
 $system timlim=99999   mwords=200 $end
 $scf soscf=.f. dirscf=.t. diis=.t. CONV=1.0d-06  $end
 $basis gbasis=n31 ngauss=6 ndfunc=1 $end
 $DAMP IFTTYP(1)=2,0 IFTFIX(1)=1,1 thrsh=500.0 $end
 $MAKEFP  POL=.t. DISP=.f. CHTR=.f.  EXREP=.f. $end
 $data
 m_95
 C1
 C1424   6.0    81.9014453900     93.4501743300     85.9556579600 
 O1425   8.0    82.0561218300     94.5309448200     85.4068756100 
 N1426   7.0    82.8369903600     92.5003528600     85.9659576400 
 H1427   1.0    82.4593544000     91.6344547300     86.3232994100 
 C1428   6.0    83.9945030200     92.5608921100     85.0462341300 
 H1429   1.0    83.7938118000     93.3563613900     84.3285560600 
 C1430   6.0    85.2223396300     93.0473041500     85.8600616500 
 H1431   1.0    84.7706031800     93.9292144800     86.3142395000 
 H1432   1.0    86.0869503000     93.3040237400     85.2479744000 
 C1433   6.0    85.7158756300     92.1791267400     87.0481109600 
 H1434   1.0    85.8749771100     91.1586570700     86.6996574400 
 H1435   1.0    84.9609756500     92.1233749400     87.8324127200 
 S1436   16.0    87.1140193900     92.9626655600     87.8677177400 
 C1437   6.0    87.4762916600     91.5480518300     88.9321899400 
 H1438   1.0    87.4999427800     90.5916214000     88.4099006700 
 H1439   1.0    86.6875553100     91.4761638600     89.6810722400 
 H1440   1.0    88.4379005400     91.7513752000     89.4034385700 
  H000    1.0    84.15284363023507  91.6686399151027  84.46078287545242 
  H000    1.0    80.97673334693975  93.06052569348203  86.35191605402336 
 $end 
 $comment Atoms to be erased:  $end

