 $contrl units=angs local=boys runtyp=makefp 
       mult=1 icharg=0 coord=cart icut=11 $end
 $system timlim=99999   mwords=200 $end
 $scf soscf=.f. dirscf=.t. diis=.t. CONV=1.0d-06  $end
 $basis gbasis=n31 ngauss=6 ndfunc=1 $end
 $DAMP IFTTYP(1)=2,0 IFTFIX(1)=1,1 thrsh=500.0 $end
 $MAKEFP  POL=.t. DISP=.f. CHTR=.f.  EXREP=.f. $end
 $data
 opt-v_144
 C1
 C2217   6.0    77.1891262400    100.0587131200     80.6954194600 
 O2218   8.0    77.6928888300     99.3533724800     81.5957691000 
 N2219   7.0    78.0348342300    100.5630951600     79.7930334700 
 H2220   1.0    77.6463477200    101.1773309400     79.0916880800 
 C2221   6.0    79.5001292200    100.2381106300     79.7362988500 
 H2222   1.0    79.8205038700     99.9013860400     80.7222363600 
 C2223   6.0    79.6642125800     99.0742280200     78.7014698400 
 H2224   1.0    79.2038299400     99.4282660900     77.7662326100 
 C2225   6.0    81.1116221500     98.6900053600     78.3691857900 
 H2226   1.0    81.6955202900     99.4961321500     77.9141151300 
 H2227   1.0    81.0987440400     97.8640978100     77.6477602500 
 H2228   1.0    81.6391102000     98.3437699600     79.2622790100 
 C2229   6.0    78.9270072000     97.8130610000     79.1463955800 
 H2230   1.0    77.8377982400     97.9200453900     79.1879593500 
 H2231   1.0    79.2874080900     97.5109505100     80.1298257200 
 H2232   1.0    79.1217567600     97.0032547900     78.4351515200 
  H000    1.0    80.1214567974047  101.0482393520814  79.3876121785955 
  H000    1.0    76.12910341144709  100.21495409503491  80.5694065230973 
 $end 
 $comment Atoms to be erased:  $end

