 $contrl units=angs local=boys runtyp=makefp 
       mult=1 icharg=0 coord=cart icut=11 $end
 $system timlim=99999   mwords=200 $end
 $scf soscf=.f. dirscf=.t. diis=.t. CONV=1.0d-06  $end
 $basis gbasis=n31 ngauss=6 ndfunc=1 $end
 $DAMP IFTTYP(1)=2,0 IFTFIX(1)=1,1 thrsh=500.0 $end
 $MAKEFP  POL=.t. DISP=.f. CHTR=.f.  EXREP=.f. $end
 $data
 opt-h_103
 C1
 C1534   6.0    88.1056969800     94.3702455500     79.3227603300 
 O1535   8.0    88.4067645300     95.3795567400     78.6829540300 
 N1536   7.0    86.9585568500     94.2900948500     80.0166881600 
 H1537   1.0    86.7751735200     93.4322577600     80.5307616400 
 C1538   6.0    86.0381217900     95.4164285700     80.2703427300 
 H1539   1.0    86.6665262600     96.2679057800     80.5440832300 
 C1540   6.0    85.2547804000     95.8453394400     78.9904206100 
 H1541   1.0    85.9833931500     95.7984423700     78.1799997300 
 H1542   1.0    85.0154510500     96.9134836900     79.1014453500 
 C1543   6.0    83.9996757400     95.1601282500     78.5335890900 
 N1544   7.0    82.7612604200     95.4427841700     79.0734680900 
 H1545   1.0    82.5605072000     96.0264545900     79.8846910900 
 C1546   6.0    81.8103426400     94.8927257300     78.3015537900 
 H1547   1.0    80.7521099300     94.9851229200     78.5034699000 
 N1548   7.0    82.3456422200     94.2578403500     77.2721758200 
 C1549   6.0    83.7105318600     94.4149748800     77.4118669400 
 H1550   1.0    84.3929597300     93.9916898800     76.6889093100 
  H000    1.0    85.3851065677075  95.25272870611066  81.11338031730965 
  H000    1.0    88.79825318482114  93.5440037687359  79.36312518671072 
 $end 
 $comment Atoms to be erased:  $end

