 $contrl units=angs local=boys runtyp=makefp 
       mult=1 icharg=0 coord=cart icut=11 $end
 $system timlim=99999   mwords=200 $end
 $scf soscf=.f. dirscf=.t. diis=.t. CONV=1.0d-06  $end
 $basis gbasis=n31 ngauss=6 ndfunc=1 $end
 $DAMP IFTTYP(1)=2,0 IFTFIX(1)=1,1 thrsh=500.0 $end
 $MAKEFP  POL=.t. DISP=.f. CHTR=.f.  EXREP=.f. $end
 $data
 opt-m_142
 C1
 C2178   6.0    70.8143241000     97.3669341200     81.8993817200 
 O2179   8.0    71.0880925800     96.5016424500     82.7542793400 
 N2180   7.0    71.6588261300     97.8056366700     80.9555637000 
 H2181   1.0    71.4107688800     98.5447566800     80.3134701300 
 C2182   6.0    73.0277997900     97.4359252400     80.8403981400 
 H2183   1.0    73.3692594700     97.3830444600     81.8741866500 
 C2184   6.0    73.1902928500     96.0869068300     80.0954205500 
 H2185   1.0    72.5788319700     95.3718903800     80.6561667600 
 H2186   1.0    74.2283351000     95.7456561200     80.1608686500 
 C2187   6.0    72.7410831100     96.1723300500     78.6368162700 
 H2188   1.0    73.5261354300     96.6214099000     78.0198098500 
 H2189   1.0    71.8449001400     96.7884791000     78.5258853800 
 S2190   16.0    72.3956805100     94.5112225600     77.9572844700 
 C2191   6.0    73.0334945300     94.7269562500     76.2785502100 
 H2192   1.0    74.0988413000     94.9755031700     76.2955788700 
 H2193   1.0    72.4923530300     95.5102908300     75.7416015200 
 H2194   1.0    72.9017593800     93.7764600200     75.7534466700 
  H000    1.0    73.59536737329643  98.2556341561945  80.42822920533571 
  H000    1.0    69.80591727232584  97.74013958872506  81.81122136828866 
 $end 
 $comment Atoms to be erased:  $end

