 $contrl units=angs local=boys runtyp=makefp 
       mult=1 icharg=0 coord=cart icut=11 $end
 $system timlim=99999   mwords=200 $end
 $scf soscf=.f. dirscf=.t. diis=.t. CONV=1.0d-06  $end
 $basis gbasis=n31 ngauss=6 ndfunc=1 $end
 $DAMP IFTTYP(1)=2,0 IFTFIX(1)=1,1 thrsh=500.0 $end
 $MAKEFP  POL=.t. DISP=.f. CHTR=.f.  EXREP=.f. $end
 $data
 p_105
 C1
 C1565   6.0    82.0313512400     96.5123071000     82.4537325500 
 O1566   8.0    81.8946465300     96.8435074100     81.2762276400 
 N1567   7.0    81.0050201400     96.3747215300     83.3003807100 
 H1568   1.0    81.1657619500     95.8127498600     84.1240692100 
 C1569   6.0    79.6053361900     96.8523025500     83.0430030800 
 H1570   1.0    79.7321510300     97.8406524700     82.6012039200 
 C1571   6.0    78.8532733900     95.7766151400     82.2353172300 
 H1572   1.0    79.3031311000     95.6772041300     81.2474632300 
 H1573   1.0    77.8046464900     96.0594463300     82.1432113600 
 C1574   6.0    78.8491296800     94.3604373900     82.6770782500 
 C1575   6.0    77.7761125600     93.8115596800     83.3493042000 
 H1576   1.0    76.9424009300     94.4202804600     83.6667633100 
 C1577   6.0    77.7441072500     92.4966621400     83.7478637700 
 H1578   1.0    77.0864296000     92.1120452900     84.5133209200 
 C1579   6.0    78.7805557300     91.6170311000     83.4138298000 
 H1580   1.0    78.6182022100     90.6134796100     83.7784385700 
 C1581   6.0    79.8191452000     92.0900249500     82.6503181500 
 H1582   1.0    80.5589485200     91.3907814000     82.2895622300 
 C1583   6.0    79.8760652500     93.4588813800     82.2469329800 
 H1584   1.0    80.7468605000     93.8184261300     81.7188835100 
  H000    1.0    79.02840103676897  96.98279399868409  83.94525399320908 
  H000    1.0    83.01610844278113  96.33687477875905  82.85797956833743 
 $end 
 $comment Atoms to be erased:  $end

