 $contrl units=angs local=boys runtyp=makefp 
       mult=1 icharg=0 coord=cart icut=11 $end
 $system timlim=99999   mwords=200 $end
 $scf soscf=.f. dirscf=.t. diis=.t. CONV=1.0d-06  $end
 $basis gbasis=n31 ngauss=6 ndfunc=1 $end
 $DAMP IFTTYP(1)=2,0 IFTFIX(1)=1,1 thrsh=500.0 $end
 $MAKEFP  POL=.t. DISP=.f. CHTR=.f.  EXREP=.f. $end
 $data
 p_101
 C1
 C1503   6.0    93.8576126100     91.4989090000     76.1868810700 
 O1504   8.0    94.1413307200     92.6500892600     75.8164310500 
 N1505   7.0    92.5760841400     91.1806488000     76.4437389400 
 H1506   1.0    92.3973846400     90.2285099000     76.7293834700 
 C1507   6.0    91.3870143900     92.1040725700     76.4031219500 
 H1508   1.0    91.6627979300     93.1368446400     76.1900043500 
 C1509   6.0    90.3936100000     91.7332649200     75.2593278900 
 H1510   1.0    89.8365211500     90.8275127400     75.4988765700 
 H1511   1.0    90.9088134800     91.3402175900     74.3828678100 
 C1512   6.0    89.5345497100     92.9345321700     74.9018859900 
 C1513   6.0    90.0130939500     93.8456249200     74.0070533800 
 H1514   1.0    90.9741210900     93.8315296200     73.5144853600 
 C1515   6.0    89.2693328900     95.0048828100     73.7030601500 
 H1516   1.0    89.6309471100     95.6764793400     72.9384708400 
 C1517   6.0    87.9409027100     95.0977134700     74.1830205900 
 H1518   1.0    87.3761844600     95.9829044300     73.9301586200 
 C1519   6.0    87.4727344500     94.2389679000     75.1123476000 
 H1520   1.0    86.4539718600     94.3109893800     75.4635286300 
 C1521   6.0    88.2246017500     93.0937099500     75.4002571100 
 H1522   1.0    87.7918148000     92.3897171000     76.0955953600 
  H000    1.0    90.85923380186229  92.03777693491627  77.34173339205356 
  H000    1.0    94.5675647321612  90.6965538248412  76.31389704039232 
 $end 
 $comment Atoms to be erased:  $end

