 $contrl units=angs local=boys runtyp=makefp 
       mult=1 icharg=0 coord=cart icut=11 $end
 $system timlim=99999   mwords=200 $end
 $scf soscf=.f. dirscf=.t. diis=.t. CONV=1.0d-06  $end
 $basis gbasis=n31 ngauss=6 ndfunc=1 $end
 $DAMP IFTTYP(1)=2,0 IFTFIX(1)=1,1 thrsh=500.0 $end
 $MAKEFP  POL=.t. DISP=.f. CHTR=.f.  EXREP=.f. $end
 $data
 p_107
 C1
 C1596   6.0    75.4030990600     97.8746986400     84.8461151100 
 O1597   8.0    75.1442050900     98.0418872800     83.6451911900 
 N1598   7.0    74.5149183300     97.3660373700     85.7144355800 
 H1599   1.0    74.8327255200     97.1997356400     86.6585922200 
 C1600   6.0    73.1873989100     96.8328571300     85.3665351900 
 H1601   1.0    72.8644084900     97.4703502700     84.5435142500 
 C1602   6.0    73.3504247700     95.4281044000     84.9053764300 
 H1603   1.0    74.1036748900     95.5004596700     84.1208648700 
 H1604   1.0    72.4273443200     95.1431942000     84.4005584700 
 C1605   6.0    73.5849905000     94.3474102000     85.9223556500 
 C1606   6.0    72.5443506200     93.8705730400     86.7246246300 
 H1607   1.0    71.5418005000     94.2721653000     86.7291832000 
 C1608   6.0    72.9149484600     92.9098510700     87.7173805200 
 H1609   1.0    72.1230506900     92.5588226300     88.3624267600 
 C1610   6.0    74.2466688200     92.4493694300     87.9168510400 
 H1611   1.0    74.5806789400     91.6715335800     88.5875129700 
 C1612   6.0    75.2161407500     92.9282474500     87.0576095600 
 H1613   1.0    76.2561464300     92.6823234600     87.2135353100 
 C1614   6.0    74.9011468900     93.8506698600     86.0600853000 
 H1615   1.0    75.6962299300     94.2370986900     85.4396629300 
  H000    1.0    72.42998949203565  96.97044223867596  86.12240568886175 
  H000    1.0    76.38472438184202  98.1511609561057  85.19813672139911 
 $end 
 $comment Atoms to be erased:  $end

