 $contrl units=angs local=boys runtyp=makefp 
       mult=1 icharg=0 coord=cart icut=11 $end
 $system timlim=99999   mwords=200 $end
 $scf soscf=.f. dirscf=.t. diis=.t. CONV=1.0d-06  $end
 $basis gbasis=n31 ngauss=6 ndfunc=1 $end
 $DAMP IFTTYP(1)=2,0 IFTFIX(1)=1,1 thrsh=500.0 $end
 $MAKEFP  POL=.t. DISP=.f. CHTR=.f.  EXREP=.f. $end
 $data
 p_145
 C1
 C2233   6.0    80.3486236600    101.3444348000     79.2601270000 
 O2234   8.0    79.8334031100    102.0250091600     78.4055447700 
 N2235   7.0    81.5687321300    101.5976750000     79.7431086800 
 C2236   6.0    82.2878159400    100.8075037900     80.7821849100 
 H2237   1.0    82.8926110800    100.0605063600     80.2680370900 
 H2238   1.0    81.6245415400    100.4200137500     81.5555231300 
 C2239   6.0    83.2427345000    101.8647717600     81.3795893700 
 H2240   1.0    84.1054519800    101.3076420000     81.7449056400 
 H2241   1.0    82.7914626400    102.4419855900     82.1866120500 
 C2242   6.0    83.5356855500    102.8483018600     80.2468096600 
 H2243   1.0    83.7700041200    103.8473761700     80.6143009600 
 H2244   1.0    84.3965339200    102.4985596400     79.6769529000 
 C2245   6.0    82.3289762800    102.7803331400     79.3399414800 
 H2246   1.0    81.7459727100    103.6862232500     79.5059869100 
  H000    1.0    82.65436031997615  102.80065765168658  78.31151985422898 
  H000    1.0    79.7272960825953  100.5343060779186  79.60881367140449 
 $end 
 $comment Atoms to be erased:  $end

