 $contrl units=angs local=boys runtyp=makefp 
       mult=1 icharg=0 coord=cart icut=11 $end
 $system timlim=99999   mwords=200 $end
 $scf soscf=.f. dirscf=.t. diis=.t. CONV=1.0d-06  $end
 $basis gbasis=n31 ngauss=6 ndfunc=1 $end
 $DAMP IFTTYP(1)=2,0 IFTFIX(1)=1,1 thrsh=500.0 $end
 $MAKEFP  POL=.t. DISP=.f. CHTR=.f.  EXREP=.f. $end
 $data
 p_168
 C1
 C2558   6.0    63.3927869800     94.0060329400     62.4610376400 
 O2559   8.0    63.3610963800     92.8187751800     62.6382923100 
 N2560   7.0    64.4345903400     94.7196292900     62.7635908100 
 H2561   1.0    64.3515253100     95.7055854800     62.5608587300 
 C2562   6.0    65.6466341000     94.2126655600     63.4610843700 
 H2563   1.0    66.1404848100     93.5311126700     62.7684831600 
 C2564   6.0    66.6122436500     95.3820800800     63.8614606900 
 H2565   1.0    65.9644269900     96.1049366000     64.3573427200 
 H2566   1.0    67.0071983300     95.7521820100     62.9153490100 
 C2567   6.0    67.7714204800     95.0969791400     64.8016977300 
 C2568   6.0    67.4887704800     95.1280975300     66.1975431400 
 H2569   1.0    66.4796066300     95.3466987600     66.5140771900 
 C2570   6.0    68.4332370800     94.7375869800     67.1764135400 
 H2571   1.0    68.2071256600     94.8756408700     68.2234144200 
 C2572   6.0    69.7451591500     94.4770622300     66.7703485500 
 H2573   1.0    70.5220842400     94.1779041300     67.4583101300 
 C2574   6.0    70.0696563700     94.4507026700     65.3512954700 
 H2575   1.0    71.0509252500     94.2208290100     64.9631357200 
 C2576   6.0    69.0520620300     94.6958160400     64.3942832900 
 H2577   1.0    69.2989635500     94.6404743200     63.3443403200 
  H000    1.0    65.44368088410667  93.60636266995716  64.33007556517073 
  H000    1.0    62.55245232219099  94.41193757993464  61.919726282494416 
 $end 
 $comment Atoms to be erased:  $end

