 $contrl units=angs local=boys runtyp=makefp 
       mult=1 icharg=0 coord=cart icut=11 $end
 $system timlim=99999   mwords=200 $end
 $scf soscf=.f. dirscf=.t. diis=.t. CONV=1.0d-06  $end
 $basis gbasis=n31 ngauss=6 ndfunc=1 $end
 $DAMP IFTTYP(1)=2,0 IFTFIX(1)=1,1 thrsh=500.0 $end
 $MAKEFP  POL=.t. DISP=.f. CHTR=.f.  EXREP=.f. $end
 $data
 p_177
 C1
 C2727   6.0    72.0466566100     84.8725223500     70.7055282600 
 O2728   8.0    72.6460790600     84.9916839600     71.7976045600 
 N2729   7.0    72.0845508600     83.7118816400     69.9843692800 
 H2730   1.0    71.6894340500     83.7542438500     69.0558290500 
 C2731   6.0    72.9245233500     82.5584602400     70.3892612500 
 H2732   1.0    73.6660528200     82.8849029500     71.1184167900 
 C2733   6.0    72.1111154600     81.4402294200     70.9820652000 
 H2734   1.0    72.8122139000     80.6597518900     71.2776994700 
 H2735   1.0    71.4925003100     81.0300827000     70.1838254900 
 C2736   6.0    71.1356258400     81.8374633800     72.0562028900 
 C2737   6.0    69.7671413400     81.7001724200     71.8730211300 
 H2738   1.0    69.3848276100     81.2583637200     70.9646987900 
 C2739   6.0    68.8336610800     82.0003509500     72.9139471100 
 H2740   1.0    67.7639722800     81.9223403900     72.7871274900 
 C2741   6.0    69.3799543400     82.6156711600     74.0855503100 
 H2742   1.0    68.6847734500     82.9950523400     74.8198461500 
 C2743   6.0    70.7570934300     82.7656555200     74.3181705500 
 H2744   1.0    71.0491418800     83.3346271500     75.1884460400 
 C2745   6.0    71.6609478000     82.3603534700     73.2907390600 
 H2746   1.0    72.7211999900     82.5495147700     73.3712339400 
  H000    1.0    73.5720083339383  82.25622630931302  69.58095639023735 
  H000    1.0    71.41834353274321  85.64902834752154  70.29785190262666 
 $end 
 $comment Atoms to be erased:  $end

