 $contrl units=angs local=boys runtyp=makefp 
       mult=1 icharg=0 coord=cart icut=11 $end
 $system timlim=99999   mwords=200 $end
 $scf soscf=.f. dirscf=.t. diis=.t. CONV=1.0d-06  $end
 $basis gbasis=n31 ngauss=6 ndfunc=1 $end
 $DAMP IFTTYP(1)=2,0 IFTFIX(1)=1,1 thrsh=500.0 $end
 $MAKEFP  POL=.t. DISP=.f. CHTR=.f.  EXREP=.f. $end
 $data
 p_175
 C1
 C2683   6.0    70.3228282900     84.9376487700     65.2378177600 
 O2684   8.0    71.0316944100     83.9302063000     65.2513361000 
 N2685   7.0    70.6312561000     86.0187435200     65.9248113600 
 H2686   1.0    69.9076700200     86.7232036600     65.9406566600 
 C2687   6.0    71.9335126900     86.4561176300     66.3570928600 
 H2688   1.0    72.6800680200     85.9650802600     65.7328796400 
 C2689   6.0    72.2021102900     87.9510784100     66.0782098800 
 H2690   1.0    71.6632938400     88.6181640600     66.7510938600 
 H2691   1.0    71.9635582000     88.1474399600     65.0329160700 
 C2692   6.0    73.7126541100     88.2906913800     66.2023687400 
 C2693   6.0    74.3079662300     89.1230106400     67.2071409200 
 H2694   1.0    73.6792850500     89.6160030400     67.9338550600 
 C2695   6.0    75.7200098000     89.2062664000     67.3422241200 
 H2696   1.0    76.1817550700     89.7979164100     68.1188392600 
 C2697   6.0    76.5513563200     88.5781765000     66.3759183900 
 H2698   1.0    77.6187515300     88.6717605600     66.5112543100 
 C2699   6.0    75.9425544700     87.7932643900     65.3553628900 
 H2700   1.0    76.5929746600     87.1789741500     64.7503757500 
 C2701   6.0    74.5925760300     87.6558494600     65.2703809700 
 H2702   1.0    74.2376613600     86.9835186000     64.5033025700 
  H000    1.0    72.07268541813322  86.21057574735721  67.39838006111802 
  H000    1.0    69.31504989465775  84.8607998632824  64.86043751274575 
 $end 
 $comment Atoms to be erased:  $end

