 $contrl units=angs local=boys runtyp=makefp 
       mult=1 icharg=0 coord=cart icut=11 $end
 $system timlim=99999   mwords=200 $end
 $scf soscf=.f. dirscf=.t. diis=.t. CONV=1.0d-06  $end
 $basis gbasis=n31 ngauss=6 ndfunc=1 $end
 $DAMP IFTTYP(1)=2,0 IFTFIX(1)=1,1 thrsh=500.0 $end
 $MAKEFP  POL=.t. DISP=.f. CHTR=.f.  EXREP=.f. $end
 $data
 p_180
 C1
 C2773   6.0    76.0248947100     76.5875339500     67.4353694900 
 O2774   8.0    74.9864244500     77.1248912800     67.0242881800 
 N2775   7.0    76.0221242900     75.2678108200     67.8489589700 
 C2776   6.0    77.2013378100     74.4440841700     68.2188940000 
 H2777   1.0    77.9758739500     74.9467277500     68.7981557800 
 H2778   1.0    77.5541448600     74.1151905100     67.2414207500 
 C2779   6.0    76.6290855400     73.2840156600     69.0366458900 
 H2780   1.0    76.4075088500     73.5681343100     70.0653743700 
 H2781   1.0    77.1847057300     72.3714065600     68.8209581400 
 C2782   6.0    75.1808929400     73.0614185300     68.4324216800 
 H2783   1.0    75.2029085200     72.4909877800     67.5038576100 
 H2784   1.0    74.5253324500     72.5705337500     69.1517019300 
 C2785   6.0    74.7451448400     74.5544719700     68.0114173900 
 H2786   1.0    74.1219234500     74.5682525600     67.1172666500 
  H000    1.0    74.27066034370972  75.1009028309225  68.81155280142214 
  H000    1.0    76.95862743282468  77.11419523265594  67.55665425935537 
 $end 
 $comment Atoms to be erased:  $end

