 $contrl units=angs local=boys runtyp=makefp 
       mult=1 icharg=0 coord=cart icut=11 $end
 $system timlim=99999   mwords=200 $end
 $scf soscf=.f. dirscf=.t. diis=.t. CONV=1.0d-06  $end
 $basis gbasis=n31 ngauss=6 ndfunc=1 $end
 $DAMP IFTTYP(1)=2,0 IFTFIX(1)=1,1 thrsh=500.0 $end
 $MAKEFP  POL=.t. DISP=.f. CHTR=.f.  EXREP=.f. $end
 $data
 p_182
 C1
 C2797   6.0    70.6741952900     76.7474174500     69.8501777600 
 O2798   8.0    69.9550771700     76.6509914400     70.8529090900 
 N2799   7.0    70.1424884800     76.8627452900     68.6190176000 
 H2800   1.0    70.8394146000     76.8105506900     67.8898572900 
 C2801   6.0    68.7129306800     76.9342613200     68.3963108100 
 H2802   1.0    68.2833766900     77.4564933800     69.2512130700 
 C2803   6.0    68.4658813500     77.8033733400     67.1665668500 
 H2804   1.0    67.3949098600     77.8323268900     66.9658374800 
 H2805   1.0    68.9588880500     77.4228858900     66.2719917300 
 C2806   6.0    68.9530134200     79.2774868000     67.2811937300 
 C2807   6.0    68.2960367200     80.3093242600     67.9645633700 
 H2808   1.0    67.2711849200     80.1584339100     68.2700443300 
 C2809   6.0    68.9110231400     81.5463924400     68.2554006600 
 H2810   1.0    68.3687353100     82.3098087300     68.7934637100 
 C2811   6.0    70.2075767500     81.8190002400     67.7251243600 
 H2812   1.0    70.7538938500     82.7348232300     67.8960037200 
 C2813   6.0    70.8549213400     80.8188056900     66.9124412500 
 H2814   1.0    71.8819713600     81.0160923000     66.6429090500 
 C2815   6.0    70.2657508900     79.5230293300     66.8443775200 
 H2816   1.0    70.8173799500     78.7905788400     66.2737512600 
  H000    1.0    68.26234264795053  75.95435939932581  68.36982400511863 
  H000    1.0    71.74863402501762  76.7067144666563  69.93885454073015 
 $end 
 $comment Atoms to be erased:  $end

