 $contrl units=angs local=boys runtyp=makefp 
       mult=1 icharg=0 coord=cart icut=11 $end
 $system timlim=99999   mwords=200 $end
 $scf soscf=.f. dirscf=.t. diis=.t. CONV=1.0d-06  $end
 $basis gbasis=n31 ngauss=6 ndfunc=1 $end
 $DAMP IFTTYP(1)=2,0 IFTFIX(1)=1,1 thrsh=500.0 $end
 $MAKEFP  POL=.t. DISP=.f. CHTR=.f.  EXREP=.f. $end
 $data
 p_209
 C1
 C3192   6.0    83.5887146000    108.8134574900     80.3108024600 
 O3193   8.0    82.7301788300    108.6009883900     81.1710357700 
 N3194   7.0    83.4029579200    108.5221195200     79.0074682200 
 C3195   6.0    84.3253707900    108.6106586500     77.9078817400 
 H3196   1.0    85.1105880700    107.8902053800     78.1369733800 
 H3197   1.0    84.7809028600    109.5972347300     77.8227281600 
 C3198   6.0    83.6094188700    108.4558868400     76.6118764900 
 H3199   1.0    83.6288452100    107.3986148800     76.3474845900 
 H3200   1.0    83.8133907300    109.1615867600     75.8065891300 
 C3201   6.0    82.1397495300    108.6436748500     76.9606447200 
 H3202   1.0    81.8763351400    109.7001361800     77.0117044400 
 H3203   1.0    81.4540195500    108.0544090300     76.3518428800 
 C3204   6.0    82.1099948900    108.3109664900     78.4578943300 
 H3205   1.0    81.4333248100    109.0377140000     78.9073991800 
  H000    1.0    81.77786823964863  107.31836710295346  78.7193847591962 
  H000    1.0    84.54862813190378  109.23128810687966  80.57142188841235 
 $end 
 $comment Atoms to be erased:  $end

