 $contrl units=angs local=boys runtyp=makefp 
       mult=1 icharg=0 coord=cart icut=11 $end
 $system timlim=99999   mwords=200 $end
 $scf soscf=.f. dirscf=.t. diis=.t. CONV=1.0d-06  $end
 $basis gbasis=n31 ngauss=6 ndfunc=1 $end
 $DAMP IFTTYP(1)=2,0 IFTFIX(1)=1,1 thrsh=500.0 $end
 $MAKEFP  POL=.t. DISP=.f. CHTR=.f.  EXREP=.f. $end
 $data
 p_217
 C1
 C3328   6.0    61.6041231200     93.3092689500     76.4640522000 
 O3329   8.0    61.5533304200     93.5218906400     75.2642822300 
 N3330   7.0    61.2940549900     92.1277236900     77.0075845700 
 H3331   1.0    61.4639902100     92.0355987500     77.9989099500 
 C3332   6.0    61.0072469700     90.8521556900     76.3047838200 
 H3333   1.0    60.4077577600     91.0821056400     75.4239702200 
 C3334   6.0    62.2172689400     90.1961994200     75.6898737000 
 H3335   1.0    62.7933263800     90.9100055700     75.1010274900 
 H3336   1.0    61.8070030200     89.5726299300     74.8955631300 
 C3337   6.0    63.0896759000     89.3397617300     76.6140937800 
 C3338   6.0    63.2859182400     88.0010509500     76.3238573100 
 H3339   1.0    62.6173496200     87.4637413000     75.6675624800 
 C3340   6.0    64.2035913500     87.1552848800     77.0150089300 
 H3341   1.0    64.1123056400     86.0825538600     76.9295263300 
 C3342   6.0    65.0264644600     87.7900981900     77.9461050000 
 H3343   1.0    65.8346509900     87.3012828800     78.4698343300 
 C3344   6.0    64.8519468300     89.1807079300     78.2519197500 
 H3345   1.0    65.5716085400     89.6896553000     78.8759946800 
 C3346   6.0    63.9725256000     90.0060272200     77.5248765900 
 H3347   1.0    64.0454626100     91.0777854900     77.6363420500 
  H000    1.0    60.438880327135976  90.1061794964173  76.83809215247507 
  H000    1.0    61.9281736268738  94.10032757900504  77.12219839505964 
 $end 
 $comment Atoms to be erased:  $end

