 $contrl units=angs local=boys runtyp=makefp 
       mult=1 icharg=0 coord=cart icut=11 $end
 $system timlim=99999   mwords=200 $end
 $scf soscf=.f. dirscf=.t. diis=.t. CONV=1.0d-06  $end
 $basis gbasis=n31 ngauss=6 ndfunc=1 $end
 $DAMP IFTTYP(1)=2,0 IFTFIX(1)=1,1 thrsh=500.0 $end
 $MAKEFP  POL=.t. DISP=.f. CHTR=.f.  EXREP=.f. $end
 $data
 p_250
 C1
 C3811   6.0    86.3319397000     71.8537426000     88.0127334600 
 O3812   8.0    85.9103679700     70.7567977900     88.4218406700 
 N3813   7.0    86.9072723400     72.0190143600     86.8067741400 
 H3814   1.0    87.3372459400     72.9182529400     86.6437339800 
 C3815   6.0    87.1360778800     70.9978866600     85.8427047700 
 H3816   1.0    87.2340965300     70.1324462900     86.4980888400 
 C3817   6.0    85.9062004100     70.7457828500     84.8967933700 
 H3818   1.0    84.9608993500     70.8411026000     85.4310607900 
 H3819   1.0    86.0108375500     69.7032165500     84.5964813200 
 C3820   6.0    85.7746219600     71.6350841500     83.6593055700 
 C3821   6.0    86.3704681400     71.2298965500     82.4447250400 
 H3822   1.0    86.8520546000     70.2750492100     82.2939300500 
 C3823   6.0    86.1330032300     72.0408725700     81.2807846100 
 H3824   1.0    86.5979003900     71.7055130000     80.3654670700 
 C3825   6.0    85.2995300300     73.1285381300     81.4064979600 
 H3826   1.0    85.0504303000     73.7057876600     80.5283546400 
 C3827   6.0    84.7730445900     73.5678672800     82.6489257800 
 H3828   1.0    84.1135501900     74.4129180900     82.7807426500 
 C3829   6.0    85.0319767000     72.7774715400     83.7733840900 
 H3830   1.0    84.7624397300     72.9907131200     84.7972488400 
  H000    1.0    88.05808239961316  71.14108437223842  85.30109514986518 
  H000    1.0    86.31823979963382  72.74429597488874  88.62155683241949 
 $end 
 $comment Atoms to be erased:  $end

