 $contrl units=angs local=boys runtyp=makefp 
       mult=1 icharg=0 coord=cart icut=11 $end
 $system timlim=99999   mwords=200 $end
 $scf soscf=.f. dirscf=.t. diis=.t. CONV=1.0d-06  $end
 $basis gbasis=n31 ngauss=6 ndfunc=1 $end
 $DAMP IFTTYP(1)=2,0 IFTFIX(1)=1,1 thrsh=500.0 $end
 $MAKEFP  POL=.t. DISP=.f. CHTR=.f.  EXREP=.f. $end
 $data
 p_63
 C1
 C927   6.0    83.7473964700     82.9407692000     88.9833831800 
 O928   8.0    83.6763191200     81.9231605500     89.6667099000 
 N929   7.0    84.1256523100     82.9888248400     87.7261352500 
 H930   1.0    84.2282486000     83.9463710800     87.4216842700 
 C931   6.0    84.5218277000     81.9320201900     86.8764305100 
 H932   1.0    84.4664192200     80.9593009900     87.3651504500 
 C933   6.0    83.4301567100     81.8457603500     85.6947517400 
 H934   1.0    83.7054061900     81.1357975000     84.9148178100 
 H935   1.0    83.3086013800     82.7890777600     85.1623153700 
 C936   6.0    82.0190239000     81.4583492300     86.1736488300 
 C937   6.0    81.5042877200     80.1706504800     85.9429359400 
 H938   1.0    82.1070861800     79.4534015700     85.4057312000 
 C939   6.0    80.1798725100     79.7483921100     86.2071609500 
 H940   1.0    79.7821283300     78.8002395600     85.8766937300 
 C941   6.0    79.3024969100     80.6783103900     86.8758392300 
 H942   1.0    78.2736158400     80.4974269900     87.1498680100 
 C943   6.0    79.8017311100     81.9414520300     87.1902847300 
 H944   1.0    79.1910696000     82.7360630000     87.5928878800 
 C945   6.0    81.1072826400     82.3557090800     86.8248748800 
 H946   1.0    81.5427970900     83.3244609800     87.0204734800 
  H000    1.0    85.47229212318973  82.1632810851249  86.42137592180575 
  H000    1.0    83.63865801261784  83.88699287442743  89.49011348838822 
 $end 
 $comment Atoms to be erased:  $end

