 $contrl units=angs local=boys runtyp=makefp 
       mult=1 icharg=0 coord=cart icut=11 $end
 $system timlim=99999   mwords=200 $end
 $scf soscf=.f. dirscf=.t. diis=.t. CONV=1.0d-06  $end
 $basis gbasis=n31 ngauss=6 ndfunc=1 $end
 $DAMP IFTTYP(1)=2,0 IFTFIX(1)=1,1 thrsh=500.0 $end
 $MAKEFP  POL=.t. DISP=.f. CHTR=.f.  EXREP=.f. $end
 $data
 p_847
 C1
 C15004   6.0    79.6291351300     88.0454444900     56.6651296600 
 O15005   8.0    78.6529159500     87.3046779600     56.7657661400 
 N15006   7.0    80.3383445700     88.5926723500     57.6980495500 
 H15007   1.0    81.1139202100     89.1982746100     57.4703741100 
 C15008   6.0    79.9605703400     88.4498024000     59.1064500800 
 H15009   1.0    79.7046423000     87.3935222600     59.1892719300 
 C15010   6.0    81.1102962500     88.7747383100     60.0267362600 
 H15011   1.0    80.8020973200     88.5665130600     61.0513162600 
 H15012   1.0    81.2672424300     89.8530292500     60.0541400900 
 C15013   6.0    82.4395847300     88.0475902600     59.7344017000 
 C15014   6.0    83.6616897600     88.8182544700     59.7690343900 
 H15015   1.0    83.6125755300     89.8833560900     59.9409198800 
 C15016   6.0    84.9212837200     88.0947017700     59.7440719600 
 H15017   1.0    85.8436203000     88.6496448500     59.8319578200 
 C15018   6.0    84.8935508700     86.7645072900     59.2719841000 
 H15019   1.0    85.8246040300     86.2852859500     59.0076398800 
 C15020   6.0    83.6584472700     86.0437583900     59.1523122800 
 H15021   1.0    83.6499595600     85.0153446200     58.8226175300 
 C15022   6.0    82.4802589400     86.7103576700     59.3717145900 
 H15023   1.0    81.5972328200     86.0936832400     59.2918777500 
  H000    1.0    79.1429604677588  89.11610676145472  59.33336745333251 
  H000    1.0    80.05043914692747  88.32724658984418  55.712748748051325 
 $end 
 $comment Atoms to be erased:  $end

