 $contrl units=angs local=boys runtyp=makefp 
       mult=1 icharg=0 coord=cart icut=11 $end
 $system timlim=99999   mwords=200 $end
 $scf soscf=.f. dirscf=.t. diis=.t. CONV=1.0d-06  $end
 $basis gbasis=n31 ngauss=6 ndfunc=1 $end
 $DAMP IFTTYP(1)=2,0 IFTFIX(1)=1,1 thrsh=500.0 $end
 $MAKEFP  POL=.t. DISP=.f. CHTR=.f.  EXREP=.f. $end
 $data
 p_859
 C1
 C15217   6.0    92.0835113500     83.1098556500     69.3366909000 
 O15218   8.0    93.3287239100     83.0570697800     69.1186952600 
 N15219   7.0    91.4552879300     82.0070362100     69.5502758000 
 C15220   6.0    90.1332092300     81.7779827100     70.1196193700 
 H15221   1.0    89.3613147700     81.8632316600     69.3547582600 
 H15222   1.0    89.7855854000     82.5776672400     70.7736635200 
 C15223   6.0    90.0715255700     80.3966808300     70.7754659700 
 H15224   1.0    89.2649650600     79.8267650600     70.3141641600 
 H15225   1.0    89.7198677100     80.4089450800     71.8071126900 
 C15226   6.0    91.5258026100     79.8573398600     70.5791664100 
 H15227   1.0    92.1243763000     80.0045013400     71.4781427400 
 H15228   1.0    91.5441227000     78.8037967700     70.3002452900 
 C15229   6.0    92.1186161000     80.7440757800     69.4331598300 
 H15230   1.0    93.1988716100     80.8082866700     69.5636940000 
  H000    1.0    91.93039179570506  80.39410794087  68.4301478547737 
  H000    1.0    91.55884422905991  84.05244923445647  69.35013137417124 
 $end 
 $comment Atoms to be erased:  $end

