 $contrl units=angs local=boys runtyp=makefp 
       mult=1 icharg=0 coord=cart icut=11 $end
 $system timlim=99999   mwords=200 $end
 $scf soscf=.f. dirscf=.t. diis=.t. CONV=1.0d-06  $end
 $basis gbasis=n31 ngauss=6 ndfunc=1 $end
 $DAMP IFTTYP(1)=2,0 IFTFIX(1)=1,1 thrsh=500.0 $end
 $MAKEFP  POL=.t. DISP=.f. CHTR=.f.  EXREP=.f. $end
 $data
 p_861
 C1
 C15245   6.0    88.8352203400     79.7420597100     65.9725666000 
 O15246   8.0    88.0139160200     79.3930625900     66.8530559500 
 N15247   7.0    88.4697532700     80.3920173600     64.8734235800 
 C15248   6.0    89.3412399300     81.0118103000     63.8475418100 
 H15249   1.0    89.8785018900     80.1971340200     63.3619833000 
 H15250   1.0    89.8994255100     81.7574596400     64.4136905700 
 C15251   6.0    88.4087181100     81.6537952400     62.8345775600 
 H15252   1.0    88.0501747100     80.8719158200     62.1651125000 
 H15253   1.0    88.8967704800     82.4664592700     62.2965288200 
 C15254   6.0    87.2878837600     82.0908927900     63.6978673900 
 H15255   1.0    87.5953960400     82.9593658400     64.2803573600 
 H15256   1.0    86.3586139700     82.2574710800     63.1530714000 
 C15257   6.0    87.1265792800     80.9189701100     64.6325206800 
 H15258   1.0    86.7312431300     81.2300300600     65.5994987500 
  H000    1.0    86.4959035945936  80.13367406825552  64.24587199416541 
  H000    1.0    89.86260085875604  79.47520579173951  66.16548408388778 
 $end 
 $comment Atoms to be erased:  $end

