 $contrl units=angs local=boys runtyp=makefp 
       mult=1 icharg=0 coord=cart icut=11 $end
 $system timlim=99999   mwords=200 $end
 $scf soscf=.f. dirscf=.t. diis=.t. CONV=1.0d-06  $end
 $basis gbasis=n31 ngauss=6 ndfunc=1 $end
 $DAMP IFTTYP(1)=2,0 IFTFIX(1)=1,1 thrsh=500.0 $end
 $MAKEFP  POL=.t. DISP=.f. CHTR=.f.  EXREP=.f. $end
 $data
 s_102
 C1
 C1523   6.0    90.6120150100     92.0067232600     77.7813903100 
 O1524   8.0    90.7144115400     90.9616908200     78.4264776700 
 N1525   7.0    89.8805482200     93.0633270600     78.1474839600 
 H1526   1.0    89.8544909300     93.8619137400     77.5280203800 
 C1527   6.0    89.0974610600     93.1870391700     79.3805641800 
 H1528   1.0    88.5291877600     92.2771242100     79.5231995500 
 C1529   6.0    90.0449887800     93.3498338600     80.5763482400 
 H1530   1.0    90.4279481300     94.3718284200     80.5985321600 
 H1531   1.0    90.8865342400     92.6619767600     80.4822423700 
 O1532   8.0    89.3629171500     93.0593972100     81.7793744900 
 H1533   1.0    89.8545216800     93.4865987000     82.5244335100 
  H000    1.0    88.40490485517887  94.01328095126411  79.34019932328927 
  H000    1.0    91.13979559813771  92.07301889508373  76.84277886794645 
 $end 
 $comment Atoms to be erased:  $end

