 $contrl units=angs local=boys runtyp=makefp 
       mult=1 icharg=0 coord=cart icut=11 $end
 $system timlim=99999   mwords=200 $end
 $scf soscf=.f. dirscf=.t. diis=.t. CONV=1.0d-06  $end
 $basis gbasis=n31 ngauss=6 ndfunc=1 $end
 $DAMP IFTTYP(1)=2,0 IFTFIX(1)=1,1 thrsh=500.0 $end
 $MAKEFP  POL=.t. DISP=.f. CHTR=.f.  EXREP=.f. $end
 $data
 s_106
 C1
 C1585   6.0    78.7856197400     97.0377063800     84.3249321000 
 O1586   8.0    79.0317964600     96.4886665300     85.3992843600 
 N1587   7.0    77.8206443800     97.9876232100     84.3195533800 
 H1588   1.0    77.7011728300     98.4297657000     83.4193611100 
 C1589   6.0    76.8243122100     98.2749652900     85.3557777400 
 H1590   1.0    77.0176124600     97.5323677100     86.1299133300 
 C1591   6.0    76.9120931600     99.7232151000     85.8782959000 
 H1592   1.0    76.9765090900    100.4800128900     85.0965118400 
 H1593   1.0    77.8641033200     99.8601055100     86.3911628700 
 O1594   8.0    75.8421087300     99.8791599300     86.7803001400 
 H1595   1.0    76.1164093000    100.4357433300     87.5127983100 
  H000    1.0    75.84268688815798  97.9985029738943  85.00375612860088 
  H000    1.0    79.36255489323104  96.90721493131592  83.42268118679092 
 $end 
 $comment Atoms to be erased:  $end

