 $contrl units=angs local=boys runtyp=makefp 
       mult=1 icharg=0 coord=cart icut=11 $end
 $system timlim=99999   mwords=200 $end
 $scf soscf=.f. dirscf=.t. diis=.t. CONV=1.0d-06  $end
 $basis gbasis=n31 ngauss=6 ndfunc=1 $end
 $DAMP IFTTYP(1)=2,0 IFTFIX(1)=1,1 thrsh=500.0 $end
 $MAKEFP  POL=.t. DISP=.f. CHTR=.f.  EXREP=.f. $end
 $data
 s_110
 C1
 C1638   6.0    65.4409551600     94.0600585900     86.8347549400 
 O1639   8.0    65.5754327800     94.1145992300     88.0300712600 
 N1640   7.0    64.5103406900     93.4536743200     86.2225341800 
 H1641   1.0    64.5247793200     93.4576225300     85.2126503000 
 C1642   6.0    63.3762311900     92.8201866100     86.8523788500 
 H1643   1.0    63.6967802000     92.3559761000     87.7850341800 
 C1644   6.0    62.3440933200     93.8773345900     87.1940994300 
 H1645   1.0    62.1522760400     94.4865703600     86.3108444200 
 H1646   1.0    62.6639080000     94.4188118000     88.0843925500 
 O1647   8.0    61.1157560300     93.2627582600     87.5127220200 
 H1648   1.0    60.6673860500     93.8069534300     88.1641769400 
  H000    1.0    62.90949057137702  92.04841603223488  86.26038031129949 
  H000    1.0    66.19193747605156  94.46484540851286  86.17436710536336 
 $end 
 $comment Atoms to be erased:  $end

