 $contrl units=angs local=boys runtyp=makefp 
       mult=1 icharg=0 coord=cart icut=11 $end
 $system timlim=99999   mwords=200 $end
 $scf soscf=.f. dirscf=.t. diis=.t. CONV=1.0d-06  $end
 $basis gbasis=n31 ngauss=6 ndfunc=1 $end
 $DAMP IFTTYP(1)=2,0 IFTFIX(1)=1,1 thrsh=500.0 $end
 $MAKEFP  POL=.t. DISP=.f. CHTR=.f.  EXREP=.f. $end
 $data
 s_164
 C1
 C2516   6.0    68.4998464600    100.9737300900     62.6371383700 
 O2517   8.0    68.8117742500    101.8603706400     61.8539571800 
 N2518   7.0    68.4673500100     99.7367000600     62.1936130500 
 H2519   1.0    68.3183956100     98.9671039600     62.8305149100 
 C2520   6.0    68.6032819700     99.4313335400     60.8096313500 
 H2521   1.0    69.2987680400    100.0901985200     60.2897262600 
 C2522   6.0    69.0356111500     97.9740810400     60.6268358200 
 H2523   1.0    70.0748062100     97.8839206700     60.9431266800 
 H2524   1.0    69.0435886400     97.7245807600     59.5658063900 
 O2525   8.0    68.2851886700     97.0228767400     61.2954282800 
 H2526   1.0    68.6802530300     96.7867946600     62.1379137000 
  H000    1.0    67.63702174301386  99.59525574305037  60.358621832703726 
  H000    1.0    68.26936398592277  101.1632924274741  63.673903940876365 
 $end 
 $comment Atoms to be erased:  $end

