 $contrl units=angs local=boys runtyp=makefp 
       mult=1 icharg=0 coord=cart icut=11 $end
 $system timlim=99999   mwords=200 $end
 $scf soscf=.f. dirscf=.t. diis=.t. CONV=1.0d-06  $end
 $basis gbasis=n31 ngauss=6 ndfunc=1 $end
 $DAMP IFTTYP(1)=2,0 IFTFIX(1)=1,1 thrsh=500.0 $end
 $MAKEFP  POL=.t. DISP=.f. CHTR=.f.  EXREP=.f. $end
 $data
 s_193
 C1
 C2963   6.0    61.0121011700     84.7127246900     71.9895839700 
 O2964   8.0    60.7335233700     84.2869472500     70.8922910700 
 N2965   7.0    60.5714941000     85.8779716500     72.4477243400 
 H2966   1.0    60.7278919200     86.1376380900     73.4111642800 
 C2967   6.0    59.8125457800     86.8122005500     71.6597509400 
 H2968   1.0    59.0786123300     86.2448501600     71.0874271400 
 C2969   6.0    59.0276098300     87.7049064600     72.6274299600 
 H2970   1.0    58.5513782500     87.0300483700     73.3386755000 
 H2971   1.0    58.2505941400     88.2499027300     72.0914077800 
 O2972   8.0    59.7827243800     88.6090087900     73.3829069100 
 H2973   1.0    60.0730848300     89.3006610900     72.7838134800 
  H000    1.0    60.39078269368555  87.43427999432461  70.99447044562173 
  H000    1.0    61.60512187073954  84.09933174626939  72.6498978685936 
 $end 
 $comment Atoms to be erased:  $end

