 $contrl units=angs local=boys runtyp=makefp 
       mult=1 icharg=0 coord=cart icut=11 $end
 $system timlim=99999   mwords=200 $end
 $scf soscf=.f. dirscf=.t. diis=.t. CONV=1.0d-06  $end
 $basis gbasis=n31 ngauss=6 ndfunc=1 $end
 $DAMP IFTTYP(1)=2,0 IFTFIX(1)=1,1 thrsh=500.0 $end
 $MAKEFP  POL=.t. DISP=.f. CHTR=.f.  EXREP=.f. $end
 $data
 s_204
 C1
 C3131   6.0    78.3196687700    109.8711299900     78.9719438600 
 O3132   8.0    79.1000700000    109.0978813200     78.4085130700 
 N3133   7.0    78.7150001500    110.7690906500     79.8637819300 
 H3134   1.0    78.1058788300    111.4902687100     80.2229118300 
 C3135   6.0    80.0753212000    110.8946800200     80.4611206100 
 H3136   1.0    80.4710960400    109.8856926000     80.3453636200 
 C3137   6.0    80.9452438400    111.9277000400     79.7411203400 
 H3138   1.0    80.4913902300    112.9087638900     79.8811864900 
 H3139   1.0    80.8879852300    111.7575264000     78.6660051300 
 O3140   8.0    82.3206901600    111.8589973400     80.0699043300 
 H3141   1.0    82.8077507000    112.5760650600     79.6573591200 
  H000    1.0    80.04560569362408  111.06197510049358  81.52651642579967 
  H000    1.0    77.27406664803327  109.78755012698169  78.71961568353828 
 $end 
 $comment Atoms to be erased:  $end

