 $contrl units=angs local=boys runtyp=makefp 
       mult=1 icharg=0 coord=cart icut=11 $end
 $system timlim=99999   mwords=200 $end
 $scf soscf=.f. dirscf=.t. diis=.t. CONV=1.0d-06  $end
 $basis gbasis=n31 ngauss=6 ndfunc=1 $end
 $DAMP IFTTYP(1)=2,0 IFTFIX(1)=1,1 thrsh=500.0 $end
 $MAKEFP  POL=.t. DISP=.f. CHTR=.f.  EXREP=.f. $end
 $data
 s_218
 C1
 C3348   6.0    60.1993322400     89.7917747500     77.0628643000 
 O3349   8.0    59.9097633400     89.8106765700     78.2464456600 
 N3350   7.0    59.7095108000     88.7556457500     76.3148784600 
 H3351   1.0    59.8834419300     88.6948490100     75.3218269300 
 C3352   6.0    59.1215229000     87.5897026100     76.9572496400 
 H3353   1.0    59.2123842200     87.6790428200     78.0397748900 
 C3354   6.0    57.6242828400     87.4236393000     76.6878271100 
 H3355   1.0    57.5982999800     87.2176075000     75.6177902200 
 H3356   1.0    57.0895576500     88.3191776300     77.0043134700 
 O3357   8.0    57.1239376100     86.3083171800     77.3888731000 
 H3358   1.0    57.4030065500     86.4673996000     78.2935285600 
  H000    1.0    59.62360565577308  86.67660590080659  76.6777747652519 
  H000    1.0    60.76769888286402  90.53775094358271  76.52955596752493 
 $end 
 $comment Atoms to be erased:  $end

