 $contrl units=angs local=boys runtyp=makefp 
       mult=1 icharg=0 coord=cart icut=11 $end
 $system timlim=99999   mwords=200 $end
 $scf soscf=.f. dirscf=.t. diis=.t. CONV=1.0d-06  $end
 $basis gbasis=n31 ngauss=6 ndfunc=1 $end
 $DAMP IFTTYP(1)=2,0 IFTFIX(1)=1,1 thrsh=500.0 $end
 $MAKEFP  POL=.t. DISP=.f. CHTR=.f.  EXREP=.f. $end
 $data
 s_213
 C1
 C3245   6.0    72.6439094500    101.9258308400     77.0357465700 
 O3246   8.0    72.4128770800    102.4290561700     75.9079313300 
 N3247   7.0    71.9953918500    100.8774852800     77.4887514100 
 H3248   1.0    72.2734975800    100.5900096900     78.4161806100 
 C3249   6.0    70.7441711400    100.4148101800     76.8601512900 
 H3250   1.0    70.1433324800    101.2640190100     76.5346813200 
 C3251   6.0    70.9530735000     99.4702529900     75.6461572600 
 H3252   1.0    71.6116905200     99.9216270400     74.9041414300 
 H3253   1.0    69.9846410800     99.3674659700     75.1566028600 
 O3254   8.0    71.4286947300     98.1705856300     76.0818243000 
 H3255   1.0    72.3134517700     98.2672691300     76.4416170100 
  H000    1.0    70.02573749224233  100.01967811919161  77.56133788990827 
  H000    1.0    73.36642820271773  102.44967069850563  77.64196217043602 
 $end 
 $comment Atoms to be erased:  $end

