 $contrl units=angs local=boys runtyp=makefp 
       mult=1 icharg=0 coord=cart icut=11 $end
 $system timlim=99999   mwords=200 $end
 $scf soscf=.f. dirscf=.t. diis=.t. CONV=1.0d-06  $end
 $basis gbasis=n31 ngauss=6 ndfunc=1 $end
 $DAMP IFTTYP(1)=2,0 IFTFIX(1)=1,1 thrsh=500.0 $end
 $MAKEFP  POL=.t. DISP=.f. CHTR=.f.  EXREP=.f. $end
 $data
 s_60
 C1
 C890   6.0    76.1154174800     87.3376178700     94.4905090300 
 O891   8.0    76.0999012000     88.2454395300     93.6686515800 
 N892   7.0    77.1432542800     86.5633392300     94.6796226500 
 H893   1.0    77.0501709000     85.8949089100     95.4310417200 
 C894   6.0    78.4588241600     86.9736576100     94.2299842800 
 H895   1.0    78.4298324600     87.7448844900     93.4602546700 
 C896   6.0    79.2907095000     87.4819946300     95.4656410200 
 H897   1.0    80.2373695400     87.8034496300     95.0313568100 
 H898   1.0    79.4479036300     86.6334533700     96.1314964300 
 O899   8.0    78.7037611000     88.5453319500     96.1522483800 
 H900   1.0    78.8227796600     89.3763923600     95.6866645800 
  H000    1.0    78.97358812810971  86.14260772908003  93.7735710328666 
  H000    1.0    75.23846179276171  87.13120421918107  95.08404169715152 
 $end 
 $comment Atoms to be erased:  $end

