 $contrl units=angs local=boys runtyp=makefp 
       mult=1 icharg=0 coord=cart icut=11 $end
 $system timlim=99999   mwords=200 $end
 $scf soscf=.f. dirscf=.t. diis=.t. CONV=1.0d-06  $end
 $basis gbasis=n31 ngauss=6 ndfunc=1 $end
 $DAMP IFTTYP(1)=2,0 IFTFIX(1)=1,1 thrsh=500.0 $end
 $MAKEFP  POL=.t. DISP=.f. CHTR=.f.  EXREP=.f. $end
 $data
 s_65
 C1
 C962   6.0    88.7183857000     80.3318119000     84.9579811100 
 O963   8.0    88.7423420000     79.2627239200     85.5454444900 
 N964   7.0    89.1882991800     80.5305862400     83.7369346600 
 H965   1.0    89.1944408400     81.5044689200     83.4693527200 
 C966   6.0    89.3094253500     79.4191455800     82.8045654300 
 H967   1.0    89.5080184900     78.4654998800     83.2936668400 
 C968   6.0    88.0463123300     79.2365551000     81.9375991800 
 H969   1.0    88.0982780500     78.3791542100     81.2665939300 
 H970   1.0    88.0104637100     80.1354694400     81.3221740700 
 O971   8.0    86.8003177600     79.2377281200     82.6078605700 
 H972   1.0    86.6384124800     80.0673580200     83.0629348800 
  H000    1.0    90.11141039548556  79.58068783883446  82.101242612918 
  H000    1.0    88.31269278109515  81.20585507664512  85.44316219012431 
 $end 
 $comment Atoms to be erased:  $end

