 $contrl units=angs local=boys runtyp=makefp 
       mult=1 icharg=0 coord=cart icut=11 $end
 $system timlim=99999   mwords=200 $end
 $scf soscf=.f. dirscf=.t. diis=.t. CONV=1.0d-06  $end
 $basis gbasis=n31 ngauss=6 ndfunc=1 $end
 $DAMP IFTTYP(1)=2,0 IFTFIX(1)=1,1 thrsh=500.0 $end
 $MAKEFP  POL=.t. DISP=.f. CHTR=.f.  EXREP=.f. $end
 $data
 s_69
 C1
 C1020   6.0    95.6417655900     77.4974060100     75.6417846700 
 O1021   8.0    95.8847522700     77.2772598300     76.8232774700 
 N1022   7.0    96.1455726600     78.5906601000     75.0478172300 
 H1023   1.0    95.9717941300     78.7061214400     74.0596008300 
 C1024   6.0    96.8154907200     79.6609211000     75.6945514700 
 H1025   1.0    97.2123718300     79.2788314800     76.6350746200 
 C1026   6.0    98.0194568600     80.1789188400     74.9279785200 
 H1027   1.0    98.6542606400     80.8255100300     75.5338239700 
 H1028   1.0    97.6463794700     80.7819557200     74.1001749000 
 O1029   8.0    98.9213085200     79.2143154100     74.4178915000 
 H1030   1.0    99.2965030700     78.6827182800     75.1237487800 
  H000    1.0    96.13444705975611  80.44631853990498  75.98311566360742 
  H000    1.0    95.0619223320307  76.78199140056296  75.07973250837122 
 $end 
 $comment Atoms to be erased:  $end

