 $contrl units=angs local=boys runtyp=makefp 
       mult=1 icharg=0 coord=cart icut=11 $end
 $system timlim=99999   mwords=200 $end
 $scf soscf=.f. dirscf=.t. diis=.t. CONV=1.0d-06  $end
 $basis gbasis=n31 ngauss=6 ndfunc=1 $end
 $DAMP IFTTYP(1)=2,0 IFTFIX(1)=1,1 thrsh=500.0 $end
 $MAKEFP  POL=.t. DISP=.f. CHTR=.f.  EXREP=.f. $end
 $data
 s_851
 C1
 C15090   6.0    84.3661689800     94.0567016600     63.7372398400 
 O15091   8.0    83.8510608700     94.7883510600     64.5554685600 
 N15092   7.0    85.5025005300     93.4482383700     63.9884281200 
 H15093   1.0    85.9803772000     93.0393600500     63.1981468200 
 C15094   6.0    86.3052177400     93.5149669600     65.2140331300 
 H15095   1.0    86.1608982100     94.5448684700     65.5404901500 
 C15096   6.0    85.7608890500     92.6858520500     66.3879203800 
 H15097   1.0    85.9165954600     91.6152763400     66.2547206900 
 H15098   1.0    84.6961212200     92.9062461900     66.4640235900 
 O15099   8.0    86.3415527300     93.0776882200     67.6023960100 
 H15100   1.0    85.8386993400     93.8276767700     67.9283571200 
  H000    1.0    87.34619916178406  93.32810978524203  65.0010050207235 
  H000    1.0    83.94114970709393  93.85663660271652  62.76601819170722 
 $end 
 $comment Atoms to be erased:  $end

