 $contrl units=angs local=boys runtyp=makefp 
       mult=1 icharg=0 coord=cart icut=11 $end
 $system timlim=99999   mwords=200 $end
 $scf soscf=.f. dirscf=.t. diis=.t. CONV=1.0d-06  $end
 $basis gbasis=n31 ngauss=6 ndfunc=1 $end
 $DAMP IFTTYP(1)=2,0 IFTFIX(1)=1,1 thrsh=500.0 $end
 $MAKEFP  POL=.t. DISP=.f. CHTR=.f.  EXREP=.f. $end
 $data
 s_90
 C1
 C1368   6.0    65.5639648400     92.6273441300     91.2759971600 
 O1369   8.0    66.0164976100     91.8251800500     92.1414947500 
 N1370   7.0    66.3878583900     93.2153034200     90.4577636700 
 H1371   1.0    66.0571432100     93.7909984600     89.6966362000 
 C1372   6.0    67.7936029400     92.9518222800     90.5806350700 
 H1373   1.0    68.0242252300     92.8699398000     91.6427993800 
 C1374   6.0    68.1015586900     91.5691661800     90.0597000100 
 H1375   1.0    67.6262283300     90.7508659400     90.6005859400 
 H1376   1.0    69.1596317300     91.3079166400     90.0777435300 
 O1377   8.0    67.8005170800     91.4300251000     88.6512947100 
 H1378   1.0    68.6081314100     91.6692256900     88.1907081600 
  H000    1.0    68.3914987921407  93.76489372921843  90.19935529338078 
  H000    1.0    64.50477622515041  92.80125512757927  91.16730795771203 
 $end 
 $comment Atoms to be erased:  $end

