 $contrl units=angs local=boys runtyp=makefp 
       mult=1 icharg=0 coord=cart icut=11 $end
 $system timlim=99999   mwords=200 $end
 $scf soscf=.f. dirscf=.t. diis=.t. CONV=1.0d-06  $end
 $basis gbasis=n31 ngauss=6 ndfunc=1 $end
 $DAMP IFTTYP(1)=2,0 IFTFIX(1)=1,1 thrsh=500.0 $end
 $MAKEFP  POL=.t. DISP=.f. CHTR=.f.  EXREP=.f. $end
 $data
 s_954
 C1
 C16680   6.0    75.0482368500     80.4712390900     61.4595270200 
 O16681   8.0    75.6624460200     81.5441894500     61.5761280100 
 N16682   7.0    74.5878076600     79.7952175100     62.5355529800 
 H16683   1.0    74.4271898300     78.8114070900     62.3730135000 
 C16684   6.0    74.8453569400     80.2496242500     63.9175510400 
 H16685   1.0    74.7494936000     81.3268470800     64.0535783800 
 C16686   6.0    73.7896394700     79.6602535200     64.8779535300 
 H16687   1.0    72.7998161300     79.9419403100     64.5187807100 
 H16688   1.0    73.9343452500     80.0992870300     65.8650779700 
 O16689   8.0    73.8459348700     78.2583141300     64.7939634300 
 H16690   1.0    74.0373754500     77.8456211100     65.6393241900 
  H000    1.0    75.82463875828961  79.94190321285892  64.24959589129003 
  H000    1.0    74.88224197104623  80.01200164378204  60.497505415381724 
 $end 
 $comment Atoms to be erased:  $end

