 $contrl units=angs local=boys runtyp=makefp 
       mult=1 icharg=0 coord=cart icut=11 $end
 $system timlim=99999   mwords=200 $end
 $scf soscf=.f. dirscf=.t. diis=.t. CONV=1.0d-06  $end
 $basis gbasis=n31 ngauss=6 ndfunc=1 $end
 $DAMP IFTTYP(1)=2,0 IFTFIX(1)=1,1 thrsh=500.0 $end
 $MAKEFP  POL=.t. DISP=.f. CHTR=.f.  EXREP=.f. $end
 $data
 s_97
 C1
 C1457   6.0    86.4478302000     90.4713535300     81.4195060700 
 O1458   8.0    86.8497467000     91.5789699600     81.1356353800 
 N1459   7.0    87.1504211400     89.3414402000     81.2061309800 
 H1460   1.0    86.7030429800     88.4374141700     81.2578773500 
 C1461   6.0    88.4804534900     89.3064689600     80.7153320300 
 H1462   1.0    88.7593650800     90.1606178300     80.0983047500 
 C1463   6.0    89.5451641100     89.2841720600     81.8574523900 
 H1464   1.0    90.5451393100     89.3072795900     81.4243316700 
 H1465   1.0    89.5871448500     88.3992481200     82.4924659700 
 O1466   8.0    89.2840385400     90.4555225400     82.6472663900 
 H1467   1.0    89.2235183700     91.2287426000     82.0815277100 
  H000    1.0    88.69687955799667  88.49389556485981  80.03944510587596 
  H000    1.0    85.43867161713551  90.3630271202047  81.78529732628121 
 $end 
 $comment Atoms to be erased:  $end

