 $contrl units=angs local=boys runtyp=makefp 
       mult=1 icharg=0 coord=cart icut=11 $end
 $system timlim=99999   mwords=200 $end
 $scf soscf=.f. dirscf=.t. diis=.t. CONV=1.0d-06  $end
 $basis gbasis=n31 ngauss=6 ndfunc=1 $end
 $DAMP IFTTYP(1)=2,0 IFTFIX(1)=1,1 thrsh=500.0 $end
 $MAKEFP  POL=.t. DISP=.f. CHTR=.f.  EXREP=.f. $end
 $data
 t_104
 C1
 C1551   6.0    85.0986933500     95.1809297600     81.4831375600 
 O1552   8.0    84.9544205500     94.0497035000     81.9719062600 
 N1553   7.0    84.4621973700     96.2582697800     81.9727030900 
 H1554   1.0    84.6637123000     97.1633909300     81.5678727600 
 C1555   6.0    83.4256769700     96.2639110500     83.0261091900 
 H1556   1.0    83.4011075100     95.3002805600     83.5228899400 
 C1557   6.0    83.7099413500     97.3482652400     84.0804099700 
 H1558   1.0    82.8413330300     97.4634379900     84.7319125900 
 C1559   6.0    84.8973265800     97.0040901100     84.9706751300 
 H1560   1.0    85.7893337100     96.8867097300     84.3649160800 
 H1561   1.0    84.6935102100     96.0803739200     85.5073511000 
 H1562   1.0    85.0573904700     97.8050033600     85.6920829800 
 O1563   8.0    83.9659764200     98.5760162700     83.4393165600 
 H1564   1.0    83.3397406700     99.2293290200     83.8145052700 
  H000    1.0    82.44091976721887  96.43934337124095  82.62186217166257 
  H000    1.0    85.75170857229251  95.34462962388933  80.64009997269035 
 $end 
 $comment Atoms to be erased:  $end

