 $contrl units=angs local=boys runtyp=makefp 
       mult=1 icharg=0 coord=cart icut=11 $end
 $system timlim=99999   mwords=200 $end
 $scf soscf=.f. dirscf=.t. diis=.t. CONV=1.0d-06  $end
 $basis gbasis=n31 ngauss=6 ndfunc=1 $end
 $DAMP IFTTYP(1)=2,0 IFTFIX(1)=1,1 thrsh=500.0 $end
 $MAKEFP  POL=.t. DISP=.f. CHTR=.f.  EXREP=.f. $end
 $data
 t_1098
 C1
 C19868   6.0    73.2766008400     96.2256050100     57.8016996400 
 H19869   1.0    73.4682369200     96.6817760500     56.8304729500 
 H19870   1.0    72.3063707400     95.7345867200     57.7264785800 
 C19871   6.0    73.1439495100     97.3781204200     58.8121891000 
 H19872   1.0    72.7558565100     97.0453929900     59.7748756400 
 H19873   1.0    74.0909814800     97.8137874600     59.1306448000 
 C19874   6.0    72.4121522900     98.7009906800     58.4682464600 
 O19875   8.0    71.6398143800     99.2199707000     59.2583560900 
 O19876   8.0    73.0856895400     99.4878864300     57.5622081800 
 C19877   6.0    72.4368238400     99.8772239700     56.2812471400 
 H19878   1.0    71.3533353800     99.8039150200     56.3749361000 
 H19879   1.0    72.8170299500    100.8809280400     56.0911798500 
 C19880   6.0    72.9946470300     98.9699077600     55.1661634400 
 H19881   1.0    72.1854972800     98.4198188800     54.6857738500 
 C19882   6.0    74.2406702000     98.7280273400     54.6235084500 
 C19883   6.0    75.5293417000     99.2141151400     55.2806997300 
 H19884   1.0    76.5122032200     99.0789508800     54.8292398500 
 H19885   1.0    75.4816722900    100.2403354600     55.6449890100 
 H19886   1.0    75.5558681500     98.6381912200     56.2057447400 
 C19887   6.0    74.4083595300     97.7928733800     53.4086799600 
 H19888   1.0    73.4259939200     97.7442264600     52.9389047600 
 H19889   1.0    74.9902343800     98.3028411900     52.6409244500 
 C19890   6.0    75.0710821200     96.3822364800     53.5430765200 
 H19891   1.0    76.1024284400     96.5239429500     53.8661098500 
 H19892   1.0    74.6121883400     95.8301925700     54.3633031800 
 C19893   6.0    75.0245666500     95.4585361500     52.3247909500 
 H19894   1.0    74.0321159400     95.4345512400     51.8747139000 
 H19895   1.0    75.6542921100     95.9956646000     51.6155386000 
 C19896   6.0    75.5051565200     93.9250278500     52.5357866300 
 H19897   1.0    76.5032339100     94.0525913200     52.9549169500 
 C19898   6.0    74.6140861500     93.0523777000     53.4907531700 
 H19899   1.0    74.5863199200     93.4472370100     54.5063352600 
 H19900   1.0    73.5765552500     92.9679012300     53.1675052600 
 H19901   1.0    75.0891113300     92.0892906200     53.6775589000 
 C19902   6.0    75.7896614100     93.2523155200     51.1235427900 
 H19903   1.0    76.4824152000     93.8293838500     50.5110073100 
 H19904   1.0    76.3493681000     92.3174762700     51.1535167700 
 C19905   6.0    74.6014595000     92.9163932800     50.1782941800 
 H19906   1.0    73.8019657100     92.3217487300     50.6202364000 
 H19907   1.0    74.1130399700     93.8684940300     49.9708223300 
 C19908   6.0    75.0480985600     92.4487781500     48.7658262300 
 H19909   1.0    75.8682346300     93.0859947200     48.4350156800 
 H19910   1.0    75.4345846200     91.4419078800     48.9237260800 
 C19911   6.0    74.0915870700     92.2077274300     47.5576734500 
 H19912   1.0    73.4343099600     91.3911438000     47.8564834600 
 C19913   6.0    72.9834604300     93.2869052900     47.2665596000 
 H19914   1.0    73.4037065500     94.1974067700     46.8393802600 
 H19915   1.0    72.2495746600     92.9600334200     46.5298986400 
 H19916   1.0    72.4182367300     93.5069084200     48.1722211800 
 C19917   6.0    74.8953580900     91.7922306100     46.2773323100 
 H19918   1.0    75.2216434500     92.6919174200     45.7556009300 
 H19919   1.0    75.8368444400     91.3083553300     46.5372657800 
 C19920   6.0    74.2383861500     90.7708549500     45.3494596500 
 H19921   1.0    74.1883516300     89.7866249100     45.8151722000 
 H19922   1.0    73.2077217100     91.1099433900     45.2453041100 
 C19923   6.0    74.7934198400     90.6683540300     43.9207458500 
 H19924   1.0    74.1002035100     90.0642776500     43.3353900900 
 H19925   1.0    74.8287391700     91.6547870600     43.4583568600 
 C19926   6.0    76.2355899800     89.9888420100     43.7426185600 
 H19927   1.0    76.9510603000     90.7190036800     44.1208505600 
 C19928   6.0    76.5750169800     89.7561264000     42.2551536600 
 H19929   1.0    76.1577320100     90.6471824600     41.7861127900 
 H19930   1.0    77.6572799700     89.7114086200     42.1334552800 
 H19931   1.0    76.2299299200     88.8197898900     41.8166303600 
 C19932   6.0    76.4623355900     88.7003040300     44.6674823800 
 H19933   1.0    76.5072488800     89.0299034100     45.7054901100 
 H19934   1.0    75.7730627100     87.8627204900     44.5604658100 
 H19935   1.0    77.4624729200     88.2932472200     44.5187473300 
  H000    1.0    73.9834277004648  95.4554142143467  58.068422018544474 
 $end 
 $comment Atoms to be erased:  $end

