 $contrl units=angs local=boys runtyp=makefp 
       mult=1 icharg=0 coord=cart icut=11 $end
 $system timlim=99999   mwords=200 $end
 $scf soscf=.f. dirscf=.t. diis=.t. CONV=1.0d-06  $end
 $basis gbasis=n31 ngauss=6 ndfunc=1 $end
 $DAMP IFTTYP(1)=2,0 IFTFIX(1)=1,1 thrsh=500.0 $end
 $MAKEFP  POL=.t. DISP=.f. CHTR=.f.  EXREP=.f. $end
 $data
 t_155
 C1
 C2382   6.0    80.1587295500     99.4695472700     68.5407114000 
 O2383   8.0    79.2149305300     99.1569137600     67.8148603400 
 N2384   7.0    80.1158809700    100.3564167000     69.5472335800 
 H2385   1.0    80.9347152700    100.3979969000     70.1370477700 
 C2386   6.0    78.8574934000    101.1337375600     69.8600721400 
 H2387   1.0    78.0513477300    100.4597282400     70.1497888600 
 C2388   6.0    79.0212297400    102.2163772600     70.9755992900 
 H2389   1.0    79.8368740100    102.8560638400     70.6385088000 
 H2390   1.0    79.4825935400    101.8136501300     71.8772983600 
 C2391   6.0    77.8942489600    103.1691741900     71.3126802400 
 C2392   6.0    78.0229425400    104.5434188800     71.4115572000 
 H2393   1.0    78.9157152200    105.0708198500     71.1095476200 
 N2394   7.0    76.9126606000    105.0614643100     71.8934917400 
 H2395   1.0    76.9739484800    106.0329055800     72.1630239500 
 C2396   6.0    75.9683418300    104.0771961200     72.2246408500 
 C2397   6.0    74.7624111200    104.1302299500     72.9155302000 
 H2398   1.0    74.3481063800    105.0993442500     73.1512546500 
 C2399   6.0    74.0643501300    102.9430294000     73.1001758600 
 H2400   1.0    73.1537628200    103.0437564800     73.6720895800 
 C2401   6.0    74.5570993400    101.7530441300     72.6169824600 
 H2402   1.0    74.0000200300    100.8292102800     72.6677370100 
 C2403   6.0    75.7451868100    101.7348003400     71.9335222200 
 H2404   1.0    76.0597467400    100.7654476200     71.5760088000 
 C2405   6.0    76.5448761000    102.8567886400     71.8229293800 
  H000    1.0    78.51567428200917  101.60154614302184  68.94998768247582 
  H000    1.0    81.1253823295388  99.03429174083624  68.34052666596088 
 $end 
 $comment Atoms to be erased:  $end

