 $contrl units=angs local=boys runtyp=makefp 
       mult=1 icharg=0 coord=cart icut=11 $end
 $system timlim=99999   mwords=200 $end
 $scf soscf=.f. dirscf=.t. diis=.t. CONV=1.0d-06  $end
 $basis gbasis=n31 ngauss=6 ndfunc=1 $end
 $DAMP IFTTYP(1)=2,0 IFTFIX(1)=1,1 thrsh=500.0 $end
 $MAKEFP  POL=.t. DISP=.f. CHTR=.f.  EXREP=.f. $end
 $data
 t_158
 C1
 C2428   6.0    76.8802738200     99.1946029700     64.9656295800 
 O2429   8.0    75.8986425400     98.8524437000     64.3109083200 
 N2430   7.0    76.8668699300     99.0663528400     66.3254070300 
 H2431   1.0    77.6164531700     99.5235443100     66.8246126200 
 C2432   6.0    75.7679271700     98.4856605500     67.1205759000 
 H2433   1.0    75.5475664100     97.4731445300     66.7824316000 
 C2434   6.0    76.2628030800     98.4074497200     68.6075592000 
 H2435   1.0    76.6973304700     99.3533134500     68.9310169200 
 C2436   6.0    75.1736402500     98.1466198000     69.6729087800 
 H2437   1.0    75.5857610700     98.3312892900     70.6649541900 
 H2438   1.0    74.7781276700     97.1410942100     69.5293855700 
 H2439   1.0    74.3359613400     98.8317298900     69.5424127600 
 O2440   8.0    77.2303152100     97.3715114600     68.6922168700 
 H2441   1.0    77.9690837900     97.7196693400     68.1876325600 
  H000    1.0    74.88522739415087  99.09599412749441  67.00979264540433 
  H000    1.0    77.6972908458034  99.73823620089547  64.51742762840503 
 $end 
 $comment Atoms to be erased:  $end

