 $contrl units=angs local=boys runtyp=makefp 
       mult=1 icharg=0 coord=cart icut=11 $end
 $system timlim=99999   mwords=200 $end
 $scf soscf=.f. dirscf=.t. diis=.t. CONV=1.0d-06  $end
 $basis gbasis=n31 ngauss=6 ndfunc=1 $end
 $DAMP IFTTYP(1)=2,0 IFTFIX(1)=1,1 thrsh=500.0 $end
 $MAKEFP  POL=.t. DISP=.f. CHTR=.f.  EXREP=.f. $end
 $data
 t_154
 C1
 C2368   6.0    82.8165054300    100.7109165200     67.2342109700 
 O2369   8.0    82.1564483600    100.6402587900     66.1865091300 
 N2370   7.0    82.5671577500     99.9392986300     68.2409286500 
 H2371   1.0    83.2542419400     99.9940204600     68.9791917800 
 C2372   6.0    81.5074729900     98.8622474700     68.2613992700 
 H2373   1.0    81.3476181000     98.2619190200     67.3657703400 
 C2374   6.0    81.8909454300     97.9516029400     69.4271230700 
 H2375   1.0    81.9493484500     98.4959507000     70.3696632400 
 C2376   6.0    80.9138488800     96.8181705500     69.6186256400 
 H2377   1.0    80.0104236600     97.0815849300     70.1686620700 
 H2378   1.0    81.3288116500     95.9534168200     70.1364135700 
 H2379   1.0    80.6112289400     96.4370822900     68.6432695400 
 O2380   8.0    83.1727981600     97.3879432700     69.1913080200 
 H2381   1.0    83.8683891300     98.0465984300     69.2539835000 
  H000    1.0    80.5408202104612  99.29750299916377  68.46158400403912 
  H000    1.0    83.5963086520037  101.45038544749664  67.32924538387 
 $end 
 $comment Atoms to be erased:  $end

