 $contrl units=angs local=boys runtyp=makefp 
       mult=1 icharg=0 coord=cart icut=11 $end
 $system timlim=99999   mwords=200 $end
 $scf soscf=.f. dirscf=.t. diis=.t. CONV=1.0d-06  $end
 $basis gbasis=n31 ngauss=6 ndfunc=1 $end
 $DAMP IFTTYP(1)=2,0 IFTFIX(1)=1,1 thrsh=500.0 $end
 $MAKEFP  POL=.t. DISP=.f. CHTR=.f.  EXREP=.f. $end
 $data
 t_171
 C1
 C2604   6.0    64.1552782100     89.3354892700     64.4361829800 
 O2605   8.0    64.3739938700     88.2718086200     65.0146627400 
 N2606   7.0    64.9353933300     90.0127601600     63.5953378700 
 H2607   1.0    64.5864105200     90.9258651700     63.3412551900 
 C2608   6.0    66.2020635600     89.5556163800     63.1191492100 
 H2609   1.0    66.0364723200     88.6291217800     62.5693512000 
 C2610   6.0    66.7199897800     90.7088279700     62.1905899000 
 H2611   1.0    67.5708627700     90.2219677000     61.7140579200 
 H2612   1.0    67.0335674300     91.6020584100     62.7308845500 
 C2613   6.0    65.8521509200     91.2822055800     61.0517311100 
 C2614   6.0    64.7487688100     90.6612968400     60.6083393100 
 H2615   1.0    64.3167877200     89.7146511100     60.8975791900 
 N2616   7.0    64.2313289600     91.3385868100     59.6084737800 
 H2617   1.0    63.4115123700     91.0942935900     59.0715217600 
 C2618   6.0    65.0186443300     92.4155712100     59.2148637800 
 C2619   6.0    64.8158550300     93.3877086600     58.2367754000 
 H2620   1.0    63.9422321300     93.5478115100     57.6223230400 
 C2621   6.0    65.8550787000     94.3077850300     58.0513382000 
 H2622   1.0    65.6610488900     95.0549411800     57.2960233700 
 C2623   6.0    66.9431638700     94.3786144300     58.9583969100 
 H2624   1.0    67.6543188100     95.1913547500     58.9479780200 
 C2625   6.0    67.1377372700     93.3798122400     59.9372482300 
 H2626   1.0    67.8883457200     93.4341907500     60.7118701900 
 C2627   6.0    66.1170673400     92.4306774100     60.2028322200 
  H000    1.0    66.90114175387336  89.35712652395216  63.916538923688904 
  H000    1.0    63.16717243484735  89.71522613834219  64.64447553275126 
 $end 
 $comment Atoms to be erased:  $end

