 $contrl units=angs local=boys runtyp=makefp 
       mult=1 icharg=0 coord=cart icut=11 $end
 $system timlim=99999   mwords=200 $end
 $scf soscf=.f. dirscf=.t. diis=.t. CONV=1.0d-06  $end
 $basis gbasis=n31 ngauss=6 ndfunc=1 $end
 $DAMP IFTTYP(1)=2,0 IFTFIX(1)=1,1 thrsh=500.0 $end
 $MAKEFP  POL=.t. DISP=.f. CHTR=.f.  EXREP=.f. $end
 $data
 t_176
 C1
 C2703   6.0    72.1401453000     86.0915565500     67.9031133700 
 O2704   8.0    73.2783889800     85.9501457200     68.3361482600 
 N2705   7.0    71.0557699200     86.0311794300     68.6493110700 
 H2706   1.0    70.1879644400     86.2890434300     68.2015132900 
 C2707   6.0    71.1375141100     85.9960937500     70.1156377800 
 H2708   1.0    71.4055252100     86.9722557100     70.5198574100 
 C2709   6.0    69.6702623400     85.9225273100     70.5016803700 
 H2710   1.0    69.3210697200     84.8990726500     70.3649330100 
 H2711   1.0    69.1737127300     86.5926170300     69.7998809800 
 C2712   6.0    69.2418050800     86.3963031800     71.8449401900 
 C2713   6.0    69.8761987700     86.1046505000     72.9813146600 
 H2714   1.0    70.5448627500     85.2671814000     73.1151866900 
 N2715   7.0    69.1759586300     86.6315174100     74.0200519600 
 H2716   1.0    69.3692350400     86.3295555100     74.9642801300 
 C2717   6.0    68.0428838700     87.2747039800     73.5716962800 
 C2718   6.0    66.9871854800     87.9259586300     74.2421817800 
 H2719   1.0    66.9388294200     87.9306125600     75.3210878400 
 C2720   6.0    66.0040283200     88.5643386800     73.4583330200 
 H2721   1.0    65.2094459500     89.0328311900     74.0200758000 
 C2722   6.0    66.0266494800     88.5419940900     72.0431947700 
 H2723   1.0    65.1444053600     88.8774395000     71.5182876600 
 C2724   6.0    67.1357107200     87.9969883000     71.4184188800 
 H2725   1.0    67.2362804400     88.0014133500     70.3431224800 
 C2726   6.0    68.1232786200     87.2956562000     72.1239852900 
  H000    1.0    71.76582718725679  85.21958775247846  70.52331413737333 
  H000    1.0    72.00097257186678  86.33709843264279  66.86182616888198 
 $end 
 $comment Atoms to be erased:  $end

