 $contrl units=angs local=boys runtyp=makefp 
       mult=1 icharg=0 coord=cart icut=11 $end
 $system timlim=99999   mwords=200 $end
 $scf soscf=.f. dirscf=.t. diis=.t. CONV=1.0d-06  $end
 $basis gbasis=n31 ngauss=6 ndfunc=1 $end
 $DAMP IFTTYP(1)=2,0 IFTFIX(1)=1,1 thrsh=500.0 $end
 $MAKEFP  POL=.t. DISP=.f. CHTR=.f.  EXREP=.f. $end
 $data
 t_202
 C1
 C3102   6.0    73.4818697000    106.6590690600     75.1713371300 
 O3103   8.0    74.1013860700    105.7183075000     75.6858730300 
 N3104   7.0    74.0610599500    107.8318214400     75.0429678000 
 H3105   1.0    73.4624099700    108.5208892800     74.6106433900 
 C3106   6.0    75.4753685000    108.1324577300     75.4056882900 
 H3107   1.0    76.0194301600    107.2025871300     75.5713701200 
 C3108   6.0    76.1211872100    108.8012313800     74.1709804500 
 H3109   1.0    75.5168104200    109.6052551300     73.7510204300 
 C3110   6.0    77.5776100200    109.2384052300     74.2399692500 
 H3111   1.0    78.1728363000    108.4741878500     74.7397470500 
 H3112   1.0    77.4662637700    110.1129913300     74.8809003800 
 H3113   1.0    78.0294513700    109.5680141400     73.3043956800 
 O3114   8.0    76.2569713600    107.7895736700     73.1948280300 
 H3115   1.0    76.3327121700    108.1379604300     72.3034858700 
  H000    1.0    75.49058642416132  108.82349907007232  76.23404158461244 
  H000    1.0    72.45600554422172  106.5878556241239  74.8450392905342 
 $end 
 $comment Atoms to be erased:  $end

