 $contrl units=angs local=boys runtyp=makefp 
       mult=1 icharg=0 coord=cart icut=11 $end
 $system timlim=99999   mwords=200 $end
 $scf soscf=.f. dirscf=.t. diis=.t. CONV=1.0d-06  $end
 $basis gbasis=n31 ngauss=6 ndfunc=1 $end
 $DAMP IFTTYP(1)=2,0 IFTFIX(1)=1,1 thrsh=500.0 $end
 $MAKEFP  POL=.t. DISP=.f. CHTR=.f.  EXREP=.f. $end
 $data
 t_215
 C1
 C3280   6.0    66.2628650700     98.8086509700     77.2850084300 
 O3281   8.0    65.7462263100     99.4587135300     76.3218927400 
 N3282   7.0    65.9298849100     97.5387954700     77.4085950900 
 H3283   1.0    66.3389205900     97.0326614400     78.1810140600 
 C3284   6.0    65.0881385800     96.7108058900     76.5856599800 
 H3285   1.0    64.5026350000     97.4790477800     76.0805892900 
 C3286   6.0    65.9897995000     96.1887359600     75.4420280500 
 H3287   1.0    66.4091253300     97.0084571800     74.8586702300 
 H3288   1.0    65.4236745800     95.6110858900     74.7113227800 
 C3289   6.0    67.1906232800     95.3068065600     75.8335113500 
 C3290   6.0    68.4829092000     95.7397365600     76.0516023600 
 H3291   1.0    68.7858581500     96.7745876300     75.9906673400 
 N3292   7.0    69.2896556900     94.6712493900     76.3904523800 
 H3293   1.0    70.2239561100     94.8218631700     76.7433071100 
 C3294   6.0    68.5623121300     93.4864997900     76.4307880400 
 C3295   6.0    68.8570690200     92.1109008800     76.6618776300 
 H3296   1.0    69.8615360300     91.8332481400     76.9453477900 
 C3297   6.0    67.9775095000     91.0970497100     76.3843774800 
 H3298   1.0    68.3121395100     90.0727462800     76.3120746600 
 C3299   6.0    66.6888284700     91.4680290200     76.0291433300 
 H3300   1.0    66.0063123700     90.6457996400     75.8725786200 
 C3301   6.0    66.2710142100     92.8215980500     75.8317852000 
 H3302   1.0    65.2349805800     92.9457378400     75.5531740200 
 C3303   6.0    67.2456932100     93.8856601700     76.0437917700 
  H000    1.0    64.53219400253607  95.92845900425706  77.0784052252909 
  H000    1.0    66.97212960293997  99.30071565577991  77.93212130031071 
 $end 
 $comment Atoms to be erased:  $end

