 $contrl units=angs local=boys runtyp=makefp 
       mult=1 icharg=0 coord=cart icut=11 $end
 $system timlim=99999   mwords=200 $end
 $scf soscf=.f. dirscf=.t. diis=.t. CONV=1.0d-06  $end
 $basis gbasis=n31 ngauss=6 ndfunc=1 $end
 $DAMP IFTTYP(1)=2,0 IFTFIX(1)=1,1 thrsh=500.0 $end
 $MAKEFP  POL=.t. DISP=.f. CHTR=.f.  EXREP=.f. $end
 $data
 t_360
 C1
 C5738   6.0    83.2334518400     84.3674278300     70.2787637700 
 H5739   1.0    83.0998611500     83.8134765600     69.3495750400 
 H5740   1.0    82.4589729300     83.9034366600     70.8895015700 
 C5741   6.0    82.7523803700     85.8193874400     69.8588705100 
 H5742   1.0    82.4886798900     86.3953399700     70.7459068300 
 H5743   1.0    83.5528373700     86.3497257200     69.3430280700 
 C5744   6.0    81.5212535900     85.7594585400     68.9062881500 
 O5745   8.0    81.5735817000     85.4612350500     67.7403163900 
 O5746   8.0    80.3773117100     85.5979156500     69.6461916000 
 C5747   6.0    79.3404626800     86.6276264200     69.5473671000 
 H5748   1.0    79.7125339500     87.5888919800     69.1928958900 
 H5749   1.0    78.6498689700     86.2468814800     68.7948989900 
 C5750   6.0    78.7426614800     86.6862106300     70.9338951100 
 H5751   1.0    79.3713808100     87.1325206800     71.7043685900 
 C5752   6.0    77.6215934800     86.0997295400     71.4485025400 
 C5753   6.0    76.4663600900     85.5646324200     70.6410312700 
 H5754   1.0    76.3916015600     85.9693431900     69.6317148200 
 H5755   1.0    76.5165758100     84.4840621900     70.5070114100 
 H5756   1.0    75.5259561500     85.7682800300     71.1531543700 
 C5757   6.0    77.5004339200     85.9636402100     73.0290079100 
 H5758   1.0    77.2872161900     84.9125480700     73.2235384000 
 H5759   1.0    78.4277391400     86.0067462900     73.6002683600 
 C5760   6.0    76.6146230700     87.0492553700     73.7627935400 
 H5761   1.0    76.8956422800     88.0860710100     73.5780334500 
 H5762   1.0    75.6334209400     86.8342876400     73.3395528800 
 C5763   6.0    76.4773607300     86.8424415600     75.3598356200 
 H5764   1.0    75.7477188100     87.5747871400     75.7053852100 
 H5765   1.0    77.4773073200     86.9097518900     75.7884025600 
 C5766   6.0    76.0432338700     85.4447174100     75.9897232100 
 H5767   1.0    76.7462825800     84.6783256500     75.6634426100 
 C5768   6.0    74.6614027000     84.9841404000     75.5179977400 
 H5769   1.0    74.5951747900     84.9174213400     74.4320631000 
 H5770   1.0    74.3369007100     84.0315914200     75.9368610400 
 H5771   1.0    73.8543510400     85.6220722200     75.8782911300 
 C5772   6.0    76.2650156000     85.3044509900     77.5613737100 
 H5773   1.0    75.8523798000     84.3723392500     77.9473733900 
 H5774   1.0    77.3397254900     85.3582286800     77.7351903900 
 C5775   6.0    75.6837081900     86.3441467300     78.5641431800 
 H5776   1.0    76.0577058800     87.3399925200     78.3264303200 
 H5777   1.0    74.6027565000     86.4105033900     78.4406805000 
 C5778   6.0    76.0212230700     85.9098053000     80.0828170800 
 H5779   1.0    75.4457473800     84.9988079100     80.2471923800 
 H5780   1.0    77.0585823100     85.5772113800     80.1198005700 
 C5781   6.0    75.6591701500     86.9077396400     81.3241386400 
 H5782   1.0    76.2443590200     87.8132724800     81.1639404300 
 C5783   6.0    76.1425876600     86.2782096900     82.6968193100 
 H5784   1.0    77.2296619400     86.2173080400     82.7484512300 
 H5785   1.0    75.8057403600     86.9345188100     83.4992599500 
 H5786   1.0    75.7398843800     85.2814865100     82.8770256000 
 C5787   6.0    74.1796731900     87.2755336800     81.4081955000 
 H5788   1.0    73.7900686300     87.5942421000     80.4413795500 
 H5789   1.0    73.5852479900     86.3801384000     81.5899467500 
 C5790   6.0    73.6512231800     88.3604049700     82.4288368200 
 H5791   1.0    72.5647926300     88.2932090800     82.3717689500 
 H5792   1.0    73.7919330600     88.1559371900     83.4902000400 
 C5793   6.0    74.1406917600     89.8538970900     82.0414733900 
 H5794   1.0    75.1499843600     89.9864673600     82.4311637900 
 H5795   1.0    74.1533184100     90.0779151900     80.9748268100 
 C5796   6.0    73.1882619900     91.0921764400     82.4813842800 
 H5797   1.0    72.1659660300     90.8606815300     82.1823501600 
 C5798   6.0    73.6055088000     92.4839019800     81.8533134500 
 H5799   1.0    74.6039533600     92.8016090400     82.1537780800 
 H5800   1.0    73.5106706600     92.5828552200     80.7719802900 
 H5801   1.0    72.9163980500     93.2336616500     82.2420311000 
 C5802   6.0    72.9447984700     91.1930084200     84.0522003200 
 H5803   1.0    73.8689756400     91.1989021300     84.6300888100 
 H5804   1.0    72.4263954200     92.1285915400     84.2620277400 
 H5805   1.0    72.1873378800     90.4741382600     84.3646049500 
  H000    1.0    84.22954171151757  84.19292780314612  70.65465419031968 
 $end 
 $comment Atoms to be erased:  $end

