 $contrl units=angs local=boys runtyp=makefp 
       mult=1 icharg=0 coord=cart icut=11 $end
 $system timlim=99999   mwords=200 $end
 $scf soscf=.f. dirscf=.t. diis=.t. CONV=1.0d-06  $end
 $basis gbasis=n31 ngauss=6 ndfunc=1 $end
 $DAMP IFTTYP(1)=2,0 IFTFIX(1)=1,1 thrsh=500.0 $end
 $MAKEFP  POL=.t. DISP=.f. CHTR=.f.  EXREP=.f. $end
 $data
 t_363
 C1
 C6158   6.0    70.0233602500     73.3528137200     93.2478523300 
 H6159   1.0    69.9871444700     73.0931758900     92.1898460400 
 H6160   1.0    70.8919811200     73.9722156500     93.4713363600 
 C6161   6.0    70.1134014100     72.0049667400     94.1083526600 
 H6162   1.0    69.8230409600     72.1045303300     95.1542282100 
 H6163   1.0    69.4181013100     71.3213825200     93.6211395300 
 C6164   6.0    71.4816045800     71.2163353000     94.2772865300 
 O6165   8.0    71.9167518600     70.7888221700     95.3689384500 
 O6166   8.0    72.3811626400     71.7372989700     93.3419990500 
 C6167   6.0    73.2587480500     70.7516002700     92.7427864100 
 H6168   1.0    73.7405824700     70.1400184600     93.5055923500 
 H6169   1.0    72.6928329500     69.9969339400     92.1965789800 
 C6170   6.0    74.2885780300     71.4004707300     91.8171119700 
 H6171   1.0    74.0090274800     71.4000797300     90.7635688800 
 C6172   6.0    75.5701780300     71.7756557500     92.2003555300 
 C6173   6.0    76.0798454300     71.7405986800     93.6879921000 
 H6174   1.0    76.4542532000     70.7314205200     93.8597488400 
 H6175   1.0    76.8592834500     72.4924564400     93.8115882900 
 H6176   1.0    75.3175115600     72.0054531100     94.4206619300 
 C6177   6.0    76.6374254200     72.1965122200     91.0753059400 
 H6178   1.0    77.5736379600     71.6968441000     91.3241577100 
 H6179   1.0    76.2296247500     71.7492008200     90.1688194300 
 C6180   6.0    76.9121456100     73.7518215200     90.9348297100 
 H6181   1.0    76.1552953700     74.2186164900     90.3044319200 
 H6182   1.0    76.9752931600     74.1849231700     91.9330978400 
 C6183   6.0    78.2726430900     74.0052700000     90.0296592700 
 H6184   1.0    78.1955575900     73.4021377600     89.1250038100 
 H6185   1.0    79.1352558100     73.5926818800     90.5528640700 
 C6186   6.0    78.6277389500     75.5220031700     89.6656036400 
 H6187   1.0    79.5414495500     75.4778289800     89.0729141200 
 C6188   6.0    79.0270423900     76.3283252700     90.9875679000 
 H6189   1.0    79.7647476200     77.0859241500     90.7231140100 
 H6190   1.0    78.1738996500     76.7667865800     91.5052604700 
 H6191   1.0    79.5722103100     75.6559944200     91.6500473000 
 C6192   6.0    77.5726985900     76.3774585700     88.7725639300 
 H6193   1.0    76.7145872100     76.5357208300     89.4257926900 
 H6194   1.0    78.0483532000     77.3422050500     88.5961914100 
 C6195   6.0    77.3230552700     75.8253955800     87.3329162600 
 H6196   1.0    78.3140468600     75.6741333000     86.9049453700 
 H6197   1.0    76.8757677100     74.8549556700     87.5480842600 
 C6198   6.0    76.3636589100     76.6349315600     86.4138603200 
 H6199   1.0    75.3884315500     76.5574932100     86.8945121800 
 H6200   1.0    76.5343093900     77.7108001700     86.4523506200 
 C6201   6.0    76.2488937400     76.3054084800     84.8524665800 
 H6202   1.0    75.3661489500     76.8072605100     84.4562149000 
 C6203   6.0    75.7920265200     74.7382545500     84.6065902700 
 H6204   1.0    74.9148654900     74.4377517700     85.1796340900 
 H6205   1.0    75.7153987900     74.4758129100     83.5514259300 
 H6206   1.0    76.5537595700     74.0745735200     85.0157356300 
 C6207   6.0    77.4963998800     76.8601417500     84.0172576900 
 H6208   1.0    78.3037376400     77.0883846300     84.7131156900 
 H6209   1.0    77.7901744800     76.0361290000     83.3670234700 
 C6210   6.0    77.3588848100     78.0937862400     83.0482864400 
 H6211   1.0    78.3448791500     78.2932663000     82.6285934400 
 H6212   1.0    76.6136360200     77.7705574000     82.3214912400 
 C6213   6.0    76.9374990500     79.3628883400     83.8126945500 
 H6214   1.0    75.8996343600     79.2982482900     84.1394615200 
 H6215   1.0    77.5097274800     79.3799591100     84.7402572600 
 C6216   6.0    77.0089101800     80.7806396500     83.1334495500 
 H6217   1.0    78.0614996000     81.0007858300     82.9554176300 
 C6218   6.0    76.5128278700     81.9378376000     84.0524292000 
 H6219   1.0    76.5569782300     82.9151153600     83.5717201200 
 H6220   1.0    75.5488348000     81.6601753200     84.4787216200 
 H6221   1.0    77.1687841400     82.0823764800     84.9108886700 
 C6222   6.0    76.3021659900     80.7840538000     81.7149734500 
 H6223   1.0    76.8355035800     80.0663948100     81.0915756200 
 H6224   1.0    75.2967214600     80.3890895800     81.8605232200 
 H6225   1.0    76.3861274700     81.7802333800     81.2805938700 
  H000    1.0    69.19078085406247  74.01143905507477  93.44011027406975 
 $end 
 $comment Atoms to be erased:  $end

