 $contrl units=angs local=boys runtyp=makefp 
       mult=1 icharg=0 coord=cart icut=11 $end
 $system timlim=99999   mwords=200 $end
 $scf soscf=.f. dirscf=.t. diis=.t. CONV=1.0d-06  $end
 $basis gbasis=n31 ngauss=6 ndfunc=1 $end
 $DAMP IFTTYP(1)=2,0 IFTFIX(1)=1,1 thrsh=500.0 $end
 $MAKEFP  POL=.t. DISP=.f. CHTR=.f.  EXREP=.f. $end
 $data
 t_365
 C1
 C6438   6.0    74.4785356500     71.5915203100     73.5121393200 
 H6439   1.0    74.3972587600     70.7068443300     74.1436767600 
 H6440   1.0    73.4753418000     72.0031166100     73.4012985200 
 C6441   6.0    74.8615455600     71.1548900600     72.0276403400 
 H6442   1.0    74.0806293500     70.4473877000     71.7488670300 
 H6443   1.0    74.8114299800     72.0051574700     71.3474702800 
 C6444   6.0    76.1775112200     70.3684997600     71.7757368100 
 O6445   8.0    76.2342977500     69.1558647200     71.5792751300 
 O6446   8.0    77.1770954100     71.1662387800     71.3158035300 
 C6447   6.0    78.3892059300     71.0991001100     72.1018171300 
 H6448   1.0    78.1331729900     71.1458110800     73.1602907200 
 H6449   1.0    78.9609623000     70.1862716700     71.9346666300 
 C6450   6.0    79.2384100000     72.4036502800     71.9232797600 
 H6451   1.0    78.8130044900     73.0620956400     71.1659240700 
 C6452   6.0    80.4034996000     72.7358532000     72.5539875000 
 C6453   6.0    81.3114452400     71.7906570400     73.3127498600 
 H6454   1.0    82.1379280100     71.4165496800     72.7085399600 
 H6455   1.0    81.8042945900     72.2414398200     74.1741371200 
 H6456   1.0    80.8199214900     70.9989643100     73.8781833600 
 C6457   6.0    81.0307216600     74.1594696000     72.3366069800 
 H6458   1.0    82.1124076800     74.0259838100     72.3220968200 
 H6459   1.0    80.8427810700     74.6791362800     71.3970708800 
 C6460   6.0    80.5399894700     75.1866912800     73.3663797400 
 H6461   1.0    79.4502353700     75.1796054800     73.3888244600 
 H6462   1.0    80.9716987600     74.8534393300     74.3101453800 
 C6463   6.0    81.0425663000     76.6809654200     73.1636285800 
 H6464   1.0    80.6677150700     77.1613216400     74.0674209600 
 H6465   1.0    82.1323585500     76.7002964000     73.1571626700 
 C6466   6.0    80.6709480300     77.6267242400     71.9173908200 
 H6467   1.0    81.2602615400     77.2316360500     71.0899162300 
 C6468   6.0    79.1246128100     77.5501823400     71.5378046000 
 H6469   1.0    78.8300514200     78.2819938700     70.7856226000 
 H6470   1.0    78.8081502900     76.5577888500     71.2166976900 
 H6471   1.0    78.5970830900     77.9014587400     72.4246072800 
 C6472   6.0    81.1516571000     79.1389083900     72.0863151600 
 H6473   1.0    82.1892929100     79.0886783600     72.4163150800 
 H6474   1.0    81.0523796100     79.6217155500     71.1141395600 
 C6475   6.0    80.4274177600     80.0888919800     73.0655908600 
 H6476   1.0    79.4120883900     80.3403377500     72.7590370200 
 H6477   1.0    80.2880668600     79.5379066500     73.9956998800 
 C6478   6.0    81.2906646700     81.4585971800     73.2864952100 
 H6479   1.0    82.3348808300     81.2885189100     73.5487365700 
 H6480   1.0    81.3436508200     81.8735313400     72.2799539600 
 C6481   6.0    80.6781196600     82.5369548800     74.2213726000 
 H6482   1.0    79.6078205100     82.3979568500     74.0689611400 
 C6483   6.0    80.9369945500     84.0146732300     73.7419557600 
 H6484   1.0    80.5712413800     84.7165203100     74.4914531700 
 H6485   1.0    81.9998359700     84.2350578300     73.8414573700 
 H6486   1.0    80.5077552800     84.3640995000     72.8029394100 
 C6487   6.0    81.0319709800     82.3181343100     75.7370376600 
 H6488   1.0    80.8434104900     81.2793445600     76.0082197200 
 H6489   1.0    82.1072959900     82.4592876400     75.8461999900 
 C6490   6.0    80.2578926100     83.0343055700     76.9450902900 
 H6491   1.0    80.3328514100     84.0966606100     76.7129993400 
 H6492   1.0    79.1819334000     82.8808689100     76.8622636800 
 C6493   6.0    80.6719780000     82.6615524300     78.4147214900 
 H6494   1.0    80.5992603300     81.5939235700     78.6220407500 
 H6495   1.0    81.7335891700     82.8982830000     78.4857797600 
 C6496   6.0    80.0217628500     83.3827781700     79.6447038700 
 H6497   1.0    78.9483642600     83.2406234700     79.5193624500 
 C6498   6.0    80.3058338200     84.9395084400     79.7315645200 
 H6499   1.0    80.0623893700     85.4934597000     78.8249349600 
 H6500   1.0    79.7791719400     85.4015731800     80.5665588400 
 H6501   1.0    81.3530159000     85.1404857600     79.9576425600 
 C6502   6.0    80.3665542600     82.7406406400     81.0226059000 
 H6503   1.0    81.3909912100     83.0303669000     81.2564659100 
 H6504   1.0    79.5995807600     82.9204273200     81.7759513900 
 H6505   1.0    80.3524589500     81.6565513600     80.9102058400 
  H000    1.0    75.03997514337179  72.3525498752924  74.03132964698356 
 $end 
 $comment Atoms to be erased:  $end

