 $contrl units=angs local=boys runtyp=makefp 
       mult=1 icharg=0 coord=cart icut=11 $end
 $system timlim=99999   mwords=200 $end
 $scf soscf=.f. dirscf=.t. diis=.t. CONV=1.0d-06  $end
 $basis gbasis=n31 ngauss=6 ndfunc=1 $end
 $DAMP IFTTYP(1)=2,0 IFTFIX(1)=1,1 thrsh=500.0 $end
 $MAKEFP  POL=.t. DISP=.f. CHTR=.f.  EXREP=.f. $end
 $data
 t_361
 C1
 C5878   6.0    79.8157405900     70.6202697800     81.0118293800 
 H5879   1.0    79.5947361000     70.4509258300     79.9579954100 
 H5880   1.0    78.9660835300     70.2409791900     81.5795707700 
 C5881   6.0    79.9885702100     72.2077179000     81.2899589500 
 H5882   1.0    80.5931854200     72.3040390000     82.1917533900 
 H5883   1.0    80.6106472000     72.6749897000     80.5265617400 
 C5884   6.0    78.7094545400     73.0886364000     81.5168762200 
 O5885   8.0    78.0977582900     73.1236076400     82.5480842600 
 O5886   8.0    78.7977743100     74.2656326300     80.8217430100 
 C5887   6.0    77.6094436600     74.4873428300     80.0415229800 
 H5888   1.0    77.3636674900     73.7406444500     79.2864656400 
 H5889   1.0    76.7539405800     74.7727870900     80.6536865200 
 C5890   6.0    77.9757213600     75.6876850100     79.2030572900 
 H5891   1.0    78.9920854600     75.6056022600     78.8178682300 
 C5892   6.0    77.3047065700     76.8342399600     78.8329458200 
 C5893   6.0    75.8291578300     77.1548843400     79.1870546300 
 H5894   1.0    75.1996994000     76.3013744400     78.9352655400 
 H5895   1.0    75.6793546700     77.3829937000     80.2423477200 
 H5896   1.0    75.4855537400     78.0473804500     78.6640882500 
 C5897   6.0    78.1928777700     77.9857254000     78.2976961100 
 H5898   1.0    77.9952478400     78.8926601400     78.8691091500 
 H5899   1.0    79.2209672900     77.7737808200     78.5913038300 
 C5900   6.0    78.1486511200     78.1486129800     76.7290210700 
 H5901   1.0    78.7080097200     79.0631866500     76.5321016300 
 H5902   1.0    78.6523866700     77.2697830200     76.3265228300 
 C5903   6.0    76.8242502200     78.2301807400     75.9320306800 
 H5904   1.0    77.1370077100     78.1132507300     74.8944377900 
 H5905   1.0    76.2122774100     77.3488044700     76.1237859700 
 C5906   6.0    76.0250616100     79.6204376200     76.0291338000 
 H5907   1.0    76.0334730100     80.0201129900     77.0431804700 
 C5908   6.0    76.6330862000     80.7782840700     75.2098083500 
 H5909   1.0    77.6346445100     80.9876537300     75.5855131100 
 H5910   1.0    76.7723798800     80.4978561400     74.1657495500 
 H5911   1.0    76.1417150500     81.7308139800     75.4081487700 
 C5912   6.0    74.4514656100     79.4335746800     75.8095216800 
 H5913   1.0    74.2600059500     79.0702724500     74.7998380700 
 H5914   1.0    74.1236782100     78.6598205600     76.5037632000 
 C5915   6.0    73.3925056500     80.6658077200     76.0445070300 
 H5916   1.0    73.5484218600     81.5685272200     75.4538345300 
 H5917   1.0    72.4367046400     80.1892662000     75.8266925800 
 C5918   6.0    73.3726310700     81.2594986000     77.5611639000 
 H5919   1.0    73.3989334100     80.4279327400     78.2653760900 
 H5920   1.0    74.2536354100     81.8936157200     77.6602506600 
 C5921   6.0    72.1911907200     82.2555637400     77.9923391300 
 H5922   1.0    72.1393728300     82.9667282100     77.1679258300 
 C5923   6.0    70.7725238800     81.5353584300     77.8955411900 
 H5924   1.0    70.5949926400     80.6934642800     78.5646963100 
 H5925   1.0    69.9670791600     82.2666931200     77.9627943000 
 H5926   1.0    70.5737733800     81.1510562900     76.8950796100 
 C5927   6.0    72.4578571300     83.2420063000     79.2306947700 
 H5928   1.0    73.4993791600     83.5614395100     79.2665910700 
 H5929   1.0    71.8147707000     84.1148185700     79.1178751000 
 C5930   6.0    72.1244382900     82.5457954400     80.5900764500 
 H5931   1.0    71.1373424500     82.0983791400     80.7064819300 
 H5932   1.0    72.6450395600     81.6181945800     80.8280181900 
 C5933   6.0    72.4220371200     83.5005378700     81.8272399900 
 H5934   1.0    73.4999942800     83.6564731600     81.7848968500 
 H5935   1.0    71.8088913000     84.3747329700     81.6082572900 
 C5936   6.0    72.0541906400     83.0423164400     83.2946777300 
 H5937   1.0    72.3386955300     81.9901657100     83.2827186600 
 C5938   6.0    70.5477285400     83.1590652500     83.5932159400 
 H5939   1.0    70.1969575900     84.1876792900     83.6769485500 
 H5940   1.0    69.9464893300     82.5973129300     82.8783607500 
 H5941   1.0    70.3258085300     82.7566146900     84.5815849300 
 C5942   6.0    72.8915262200     83.8610172300     84.3324089100 
 H5943   1.0    73.9200401300     83.5497093200     84.1498184200 
 H5944   1.0    72.8232669800     84.9467182200     84.2638588000 
 H5945   1.0    72.6013374300     83.6194324500     85.3549194300 
  H000    1.0    80.63654488231265  69.94478583043187  81.196059255962 
 $end 
 $comment Atoms to be erased:  $end

