 $contrl units=angs local=boys runtyp=makefp 
       mult=1 icharg=0 coord=cart icut=11 $end
 $system timlim=99999   mwords=200 $end
 $scf soscf=.f. dirscf=.t. diis=.t. CONV=1.0d-06  $end
 $basis gbasis=n31 ngauss=6 ndfunc=1 $end
 $DAMP IFTTYP(1)=2,0 IFTFIX(1)=1,1 thrsh=500.0 $end
 $MAKEFP  POL=.t. DISP=.f. CHTR=.f.  EXREP=.f. $end
 $data
 t_362
 C1
 C6018   6.0    71.4601707500     65.8951330200     94.4094085700 
 H6019   1.0    70.9193944900     66.3945007300     95.2133369400 
 H6020   1.0    71.3131809200     64.8851490000     94.7920799300 
 C6021   6.0    72.9468488700     66.3789510700     94.4888496400 
 H6022   1.0    73.0494117700     67.3343610800     93.9742660500 
 H6023   1.0    73.2487916900     66.6312217700     95.5053520200 
 C6024   6.0    74.1106939300     65.4703521700     93.9497375500 
 O6025   8.0    74.3268966700     64.3638229400     94.4515800500 
 O6026   8.0    75.0748491300     66.1567497300     93.3352661100 
 C6027   6.0    75.2454567000     65.7549095200     91.9456481900 
 H6028   1.0    75.7057428400     64.7669935200     91.9615364100 
 H6029   1.0    74.3099594100     65.7096242900     91.3880729700 
 C6030   6.0    76.2225627900     66.7771291700     91.2606811500 
 H6031   1.0    76.3429689400     67.7032136900     91.8227958700 
 C6032   6.0    76.7875289900     66.6987133000     89.9997901900 
 C6033   6.0    76.7404174800     65.4853534700     89.1207504300 
 H6034   1.0    76.8264675100     65.6623411200     88.0486679100 
 H6035   1.0    77.6313352600     64.8699617400     89.2459106400 
 H6036   1.0    75.9412050200     64.7680568700     89.3074035600 
 C6037   6.0    77.4267101300     68.0610704400     89.3865203900 
 H6038   1.0    77.8697347600     68.6231899300     90.2086067200 
 H6039   1.0    78.3568525300     67.7985096000     88.8825416600 
 C6040   6.0    76.4231109600     68.8930749900     88.5461998000 
 H6041   1.0    75.8349752400     68.2171964600     87.9253959700 
 H6042   1.0    75.7379818000     69.4215297700     89.2090988200 
 C6043   6.0    76.9970083200     70.0206995000     87.6214218100 
 H6044   1.0    76.0671043400     70.4498767900     87.2483444200 
 H6045   1.0    77.4905157100     70.7797527300     88.2283592200 
 C6046   6.0    77.8669214200     69.6930074700     86.3343429600 
 H6047   1.0    78.6996555300     69.0291547800     86.5666389500 
 C6048   6.0    77.1313858000     68.8626909300     85.3054237400 
 H6049   1.0    77.8458356900     68.6796808200     84.5028114300 
 H6050   1.0    76.9304418600     67.8597497900     85.6820106500 
 H6051   1.0    76.1887311900     69.3180131900     85.0017929100 
 C6052   6.0    78.5134840000     71.0396862000     85.7304382300 
 H6053   1.0    78.5841035800     70.8819198600     84.6542358400 
 H6054   1.0    77.8211689000     71.8728065500     85.8517837500 
 C6055   6.0    79.8723173100     71.5798568700     86.3470268200 
 H6056   1.0    79.5247268700     71.7347908000     87.3684310900 
 H6057   1.0    80.5792236300     70.7503032700     86.3320541400 
 C6058   6.0    80.2163982400     72.9856300400     85.8148002600 
 H6059   1.0    80.0562477100     73.0390453300     84.7379493700 
 H6060   1.0    79.5057535200     73.7000656100     86.2303352400 
 C6061   6.0    81.6599369000     73.5676479300     85.9186363200 
 H6062   1.0    82.2793674500     72.9218769100     85.2962303200 
 C6063   6.0    82.2960281400     73.4004688300     87.3337364200 
 H6064   1.0    81.6883754700     73.9234447500     88.0722045900 
 H6065   1.0    82.3552990000     72.3725414300     87.6914405800 
 H6066   1.0    83.3042621600     73.8133621200     87.3664283800 
 C6067   6.0    81.7239952100     75.0405979200     85.2503776600 
 H6068   1.0    81.1046791100     75.6891059900     85.8700752300 
 H6069   1.0    82.7386093100     75.4173469500     85.3796958900 
 C6070   6.0    81.3780307800     75.1610469800     83.6592483500 
 H6071   1.0    81.7271423300     74.3170833600     83.0642890900 
 H6072   1.0    80.2919387800     75.1201534300     83.5767936700 
 C6073   6.0    81.9868850700     76.4846515700     83.0076408400 
 H6074   1.0    81.4268684400     77.2317314100     83.5700988800 
 H6075   1.0    83.0381965600     76.7437934900     83.1328773500 
 C6076   6.0    81.6208171800     76.7099762000     81.4414978000 
 H6077   1.0    80.5618572200     76.4589214300     81.3808631900 
 C6078   6.0    82.4012184100     75.7774257700     80.4425048800 
 H6079   1.0    82.2855567900     74.6993732500     80.5544281000 
 H6080   1.0    82.1608734100     76.0208129900     79.4075727500 
 H6081   1.0    83.4756469700     75.9440136000     80.5197715800 
 C6082   6.0    81.8735313400     78.2376670800     80.9514808700 
 H6083   1.0    81.2676429700     79.0645408600     81.3220214800 
 H6084   1.0    82.9108333600     78.5615634900     81.0361480700 
 H6085   1.0    81.6215515100     78.2552146900     79.8911619200 
  H000    1.0    70.83989224965188  65.85866766504901  93.52744272060775 
 $end 
 $comment Atoms to be erased:  $end

