 $contrl units=angs local=boys runtyp=makefp 
       mult=1 icharg=0 coord=cart icut=11 $end
 $system timlim=99999   mwords=200 $end
 $scf soscf=.f. dirscf=.t. diis=.t. CONV=1.0d-06  $end
 $basis gbasis=n31 ngauss=6 ndfunc=1 $end
 $DAMP IFTTYP(1)=2,0 IFTFIX(1)=1,1 thrsh=500.0 $end
 $MAKEFP  POL=.t. DISP=.f. CHTR=.f.  EXREP=.f. $end
 $data
 t_364
 C1
 C6298   6.0    70.0130891800     88.5817813900     87.1194458000 
 H6299   1.0    70.3766870500     89.5623493200     87.4266815200 
 H6300   1.0    69.8521709400     88.1623458900     88.1125640900 
 C6301   6.0    71.1559581800     87.6711177800     86.4188957200 
 H6302   1.0    70.7567930200     86.6638851200     86.2994575500 
 H6303   1.0    71.3387441600     88.0150985700     85.4008865400 
 C6304   6.0    72.5674581500     87.6959419300     87.0900344800 
 O6305   8.0    73.2606172600     88.6847782100     87.0324516300 
 O6306   8.0    73.2684660000     86.5024471300     86.9311523400 
 C6307   6.0    74.1719532000     86.2384223900     88.1255912800 
 H6308   1.0    74.8861742000     87.0503425600     88.2625389100 
 H6309   1.0    73.6991882300     86.3801670100     89.0974426300 
 C6310   6.0    74.9425649600     84.8922634100     87.8259086600 
 H6311   1.0    75.3574895900     84.8449230200     86.8190956100 
 C6312   6.0    74.9549150500     83.7087440500     88.5285186800 
 C6313   6.0    74.4082260100     83.6563968700     90.0087928800 
 H6314   1.0    73.3182621000     83.6484432200     90.0059890700 
 H6315   1.0    74.8669433600     82.8593921700     90.5939865100 
 H6316   1.0    74.7870063800     84.5670223200     90.4729080200 
 C6317   6.0    75.5305099500     82.4510002100     87.8328895600 
 H6318   1.0    75.7275199900     82.5533866900     86.7657470700 
 H6319   1.0    76.5172433900     82.3754406000     88.2897758500 
 C6320   6.0    74.8067235900     81.1832714100     87.8731155400 
 H6321   1.0    75.4119777700     80.4140663100     87.3934364300 
 H6322   1.0    74.6096181900     80.9470367400     88.9187812800 
 C6323   6.0    73.3337497700     81.1023902900     87.1093750000 
 H6324   1.0    72.6467418700     81.8326759300     87.5369453400 
 H6325   1.0    73.4922075300     81.4740181000     86.0970115700 
 C6326   6.0    72.6518440200     79.6647548700     87.0517921400 
 H6327   1.0    73.4030342100     78.9472866100     86.7215538000 
 C6328   6.0    71.5909814800     79.5929145800     85.9024620100 
 H6329   1.0    70.8660888700     80.3587436700     86.1783981300 
 H6330   1.0    71.9561290700     79.7248268100     84.8839569100 
 H6331   1.0    71.0422754300     78.6560440100     85.9988021900 
 C6332   6.0    72.1633672700     79.1096782700     88.4560203600 
 H6333   1.0    71.8699073800     79.9429607400     89.0944671600 
 H6334   1.0    71.2427377700     78.5535240200     88.2792854300 
 C6335   6.0    73.1197547900     78.1942176800     89.3356895400 
 H6336   1.0    73.2669639600     77.2458648700     88.8189125100 
 H6337   1.0    74.1072273300     78.6328411100     89.4791984600 
 C6338   6.0    72.4300146100     77.8287696800     90.7392883300 
 H6339   1.0    72.1733474700     78.7393665300     91.2806129500 
 H6340   1.0    71.4678001400     77.3588752700     90.5357551600 
 C6341   6.0    73.2893371600     76.9225597400     91.7287826500 
 H6342   1.0    74.2995071400     77.3283958400     91.6744232200 
 C6343   6.0    73.3465957600     75.3932952900     91.3161087000 
 H6344   1.0    73.9995145800     74.8258686100     91.9792938200 
 H6345   1.0    72.3557233800     74.9438858000     91.2505340600 
 H6346   1.0    73.8149023100     75.3177833600     90.3347396900 
 C6347   6.0    72.6056242000     77.0061683700     93.1369209300 
 H6348   1.0    72.3656463600     78.0322074900     93.4157753000 
 H6349   1.0    71.6926574700     76.4232730900     93.0152511600 
 C6350   6.0    73.3320617700     76.5480613700     94.4083023100 
 H6351   1.0    72.5658750500     76.5198040000     95.1830673200 
 H6352   1.0    73.6130666700     75.5182170900     94.1879463200 
 C6353   6.0    74.5390462900     77.4433422100     94.9693489100 
 H6354   1.0    75.1525402100     76.7498779300     95.5445289600 
 H6355   1.0    75.2001524000     77.7774238600     94.1696929900 
 C6356   6.0    74.1047096300     78.6730575600     95.9456825300 
 H6357   1.0    73.2870435700     78.3417511000     96.5858078000 
 C6358   6.0    73.6122703600     80.0342655200     95.2007103000 
 H6359   1.0    73.5526990900     80.8124733000     95.9616088900 
 H6360   1.0    74.4614648800     80.2486896500     94.5518684400 
 H6361   1.0    72.7024412200     79.8726463300     94.6226120000 
 C6362   6.0    75.2016305900     79.0022659300     97.0620727500 
 H6363   1.0    75.4697132100     78.1300163300     97.6582527200 
 H6364   1.0    76.1050033600     79.4019222300     96.6013526900 
 H6365   1.0    74.7044897100     79.6742820700     97.7615928600 
  H000    1.0    69.09798374499968  88.80006695453689  86.59136213735958 
 $end 
 $comment Atoms to be erased:  $end

