 $contrl units=angs local=boys runtyp=makefp 
       mult=1 icharg=0 coord=cart icut=11 $end
 $system timlim=99999   mwords=200 $end
 $scf soscf=.f. dirscf=.t. diis=.t. CONV=1.0d-06  $end
 $basis gbasis=n31 ngauss=6 ndfunc=1 $end
 $DAMP IFTTYP(1)=2,0 IFTFIX(1)=1,1 thrsh=500.0 $end
 $MAKEFP  POL=.t. DISP=.f. CHTR=.f.  EXREP=.f. $end
 $data
 t_70
 C1
 C1031   6.0    95.8379554700     80.7882404300     76.1087417600 
 O1032   8.0    96.2564086900     81.7871666000     76.7860460300 
 N1033   7.0    94.5411777500     80.7038021100     75.8363771400 
 H1034   1.0    94.3004703500     79.8052215600     75.4430532500 
 C1035   6.0    93.5583782200     81.7495441400     76.1172628400 
 H1036   1.0    93.9893913300     82.7497577700     76.1609172800 
 C1037   6.0    92.5027370500     81.8541050000     75.0880670500 
 H1038   1.0    91.7566013300     81.0627460500     75.1598167400 
 C1039   6.0    91.6899967200     83.0673980700     75.3437709800 
 H1040   1.0    91.0975265500     83.4321594200     74.5047044800 
 H1041   1.0    92.3363876300     83.8501548800     75.7407331500 
 H1042   1.0    90.9136009200     82.8612232200     76.0805273100 
 O1043   8.0    93.1061267900     81.9334411600     73.7722301500 
 H1044   1.0    93.6589431800     81.1723613700     73.5805034600 
  H000    1.0    93.20072974211635  81.56651825730027  77.11852603822986 
  H000    1.0    96.51899913024388  80.00284299009502  75.82017756639257 
 $end 
 $comment Atoms to be erased:  $end

