 $contrl units=angs local=boys runtyp=makefp 
       mult=1 icharg=0 coord=cart icut=11 $end
 $system timlim=99999   mwords=200 $end
 $scf soscf=.f. dirscf=.t. diis=.t. CONV=1.0d-06  $end
 $basis gbasis=n31 ngauss=6 ndfunc=1 $end
 $DAMP IFTTYP(1)=2,0 IFTFIX(1)=1,1 thrsh=500.0 $end
 $MAKEFP  POL=.t. DISP=.f. CHTR=.f.  EXREP=.f. $end
 $data
 t_75
 C1
 C1122   6.0    83.6288833600     86.8344688400     85.9986877400 
 O1123   8.0    83.3928871200     85.8040618900     86.5964508100 
 N1124   7.0    83.7468719500     88.0460166900     86.6054916400 
 H1125   1.0    84.0569210100     88.7983799000     86.0072326700 
 C1126   6.0    83.4319400800     88.2702350600     88.0341911300 
 H1127   1.0    83.2738208800     87.3272419000     88.5575103800 
 C1128   6.0    84.4970321700     89.2057800300     88.6880683900 
 H1129   1.0    84.5438194300     90.1859569500     88.2135582000 
 C1130   6.0    84.2568588300     89.3641090400     90.2270317100 
 H1131   1.0    83.4174060800     90.0449943500     90.3678131100 
 H1132   1.0    85.1901912700     89.8436164900     90.5220794700 
 H1133   1.0    84.0232086200     88.3868980400     90.6496048000 
 O1134   8.0    85.7341957100     88.6133003200     88.4514236500 
 H1135   1.0    85.9114551500     88.6698722800     87.5096321100 
  H000    1.0    82.48734892184338  88.79113513805615  88.0154948144959 
  H000    1.0    83.78841098831492  86.7581980323508  84.93441681617244 
 $end 
 $comment Atoms to be erased:  $end

