 $contrl units=angs local=boys runtyp=makefp 
       mult=1 icharg=0 coord=cart icut=11 $end
 $system timlim=99999   mwords=200 $end
 $scf soscf=.f. dirscf=.t. diis=.t. CONV=1.0d-06  $end
 $basis gbasis=n31 ngauss=6 ndfunc=1 $end
 $DAMP IFTTYP(1)=2,0 IFTFIX(1)=1,1 thrsh=500.0 $end
 $MAKEFP  POL=.t. DISP=.f. CHTR=.f.  EXREP=.f. $end
 $data
 t_848
 C1
 C15024   6.0    78.7689304400     89.4209194200     59.4371748000 
 O15025   8.0    78.4603500400     90.3643608100     58.6892223400 
 N15026   7.0    78.3675527600     89.2751216900     60.7075548200 
 H15027   1.0    78.8363599800     88.6094856300     61.3052558900 
 C15028   6.0    77.3406362500     90.1083660100     61.3438987700 
 H15029   1.0    76.6389513000     90.4379749300     60.5776739100 
 C15030   6.0    76.5911388400     89.3564510300     62.4382686600 
 H15031   1.0    76.1947870300     90.1525783500     63.0684948000 
 H15032   1.0    77.2884178200     88.7942028000     63.0593872100 
 C15033   6.0    75.5051469800     88.3807754500     61.9314909000 
 C15034   6.0    74.1598987600     88.8612651800     61.7523288700 
 H15035   1.0    73.8692998900     89.8788166000     61.9680786100 
 C15036   6.0    73.1697177900     87.9716777800     61.3612651800 
 H15037   1.0    72.1466922800     88.3126258900     61.3014793400 
 C15038   6.0    73.4699869200     86.5954017600     61.0432624800 
 O15039   8.0    72.5365066500     85.6443214400     60.7317066200 
 H15040   1.0    72.9054355600     84.7676372500     60.8617448800 
 C15041   6.0    74.8319578200     86.1534214000     61.2099313700 
 H15042   1.0    75.1391029400     85.1508522000     60.9512329100 
 C15043   6.0    75.8119821500     87.0653724700     61.6603422200 
 H15044   1.0    76.8084716800     86.6568088500     61.7408943200 
  H000    1.0    77.77264664826079  91.0120177388908  61.74479709659567 
  H000    1.0    79.58654031224121  88.75461505854528  59.210257426667496 
 $end 
 $comment Atoms to be erased:  $end

