 $contrl units=angs local=boys runtyp=makefp 
       mult=1 icharg=0 coord=cart icut=11 $end
 $system timlim=99999   mwords=200 $end
 $scf soscf=.f. dirscf=.t. diis=.t. CONV=1.0d-06  $end
 $basis gbasis=n31 ngauss=6 ndfunc=1 $end
 $DAMP IFTTYP(1)=2,0 IFTFIX(1)=1,1 thrsh=500.0 $end
 $MAKEFP  POL=.t. DISP=.f. CHTR=.f.  EXREP=.f. $end
 $data
 t_849
 C1
 C15045   6.0    77.9843473400     91.4548397100     61.9412517500 
 O15046   8.0    77.3109245300     92.3758220700     62.3244333300 
 N15047   7.0    79.3073701900     91.4628124200     61.9649648700 
 H15048   1.0    79.8112821600     90.7472610500     61.4608192400 
 C15049   6.0    80.1232719400     92.5385093700     62.5744056700 
 H15050   1.0    79.7070550900     93.4720039400     62.1956634500 
 C15051   6.0    79.9212551100     92.5615310700     64.1005563700 
 H15052   1.0    78.8733196300     92.6949596400     64.3691349000 
 H15053   1.0    80.4249954200     93.4511947600     64.4785022700 
 C15054   6.0    80.5782508900     91.4675235700     64.9055910100 
 C15055   6.0    80.0925827000     90.0822734800     64.8090791700 
 H15056   1.0    79.0951108900     89.8810863500     64.4471883800 
 C15057   6.0    80.8543872800     89.0085601800     65.3463316000 
 H15058   1.0    80.4927444500     87.9910183000     65.3605651900 
 C15059   6.0    82.1236515000     89.3031120300     65.9023141900 
 O15060   8.0    82.9120540600     88.3070659600     66.3116455100 
 H15061   1.0    82.4574852000     87.4713039400     66.1832666400 
 C15062   6.0    82.5892639200     90.6218719500     65.9951114700 
 H15063   1.0    83.5826492300     90.7970714600     66.3809776300 
 C15064   6.0    81.7675018300     91.7116737400     65.5598735800 
 H15065   1.0    82.1046257000     92.7188301100     65.7557630500 
  H000    1.0    81.18249343090197  92.45079526748604  62.38921666106164 
  H000    1.0    77.55233694173921  90.5511879811092  61.54035342340433 
 $end 
 $comment Atoms to be erased:  $end

