 $contrl units=angs local=boys runtyp=makefp 
       mult=1 icharg=0 coord=cart icut=11 $end
 $system timlim=99999   mwords=200 $end
 $scf soscf=.f. dirscf=.t. diis=.t. CONV=1.0d-06  $end
 $basis gbasis=n31 ngauss=6 ndfunc=1 $end
 $DAMP IFTTYP(1)=2,0 IFTFIX(1)=1,1 thrsh=500.0 $end
 $MAKEFP  POL=.t. DISP=.f. CHTR=.f.  EXREP=.f. $end
 $data
 t_863
 C1
 C15278   6.0    83.7172699000     78.0411338800     64.2646551100 
 O15279   8.0    83.1165504500     77.9958248100     63.1603908500 
 N15280   7.0    83.0515003200     78.5547351800     65.3915500600 
 H15281   1.0    83.5160636900     78.4098434400     66.2765884400 
 C15282   6.0    81.6548538200     79.0255451200     65.4903984100 
 H15283   1.0    81.1313343000     78.3641147600     64.8000764800 
 C15284   6.0    81.0578250900     78.7237739600     66.9052124000 
 H15285   1.0    80.0245666500     79.0698623700     66.9318914400 
 H15286   1.0    81.5833568600     79.3177986100     67.6529073700 
 C15287   6.0    81.2237644200     77.2351932500     67.3074579200 
 C15288   6.0    80.5380439800     76.2656688700     66.5840673400 
 H15289   1.0    79.9209690100     76.5096569100     65.7319593400 
 C15290   6.0    80.5730247500     74.8877716100     66.8720197700 
 H15291   1.0    79.9478483200     74.1581630700     66.3788366300 
 C15292   6.0    81.3417625400     74.4910240200     68.0078887900 
 O15293   8.0    81.3639068600     73.1597518900     68.2563877100 
 H15294   1.0    80.8697509800     72.6178646100     67.6369047200 
 C15295   6.0    82.0166778600     75.4335308100     68.7844228700 
 H15296   1.0    82.6128864300     75.0982379900     69.6201992000 
 C15297   6.0    82.0469570200     76.8551445000     68.3755779300 
 H15298   1.0    82.6379203800     77.5582695000     68.9437246300 
  H000    1.0    81.46007374790406  80.02850414667908  65.14388316658746 
  H000    1.0    84.74718765287705  77.74221546996556  64.38236707222637 
 $end 
 $comment Atoms to be erased:  $end

