 $contrl units=angs local=boys runtyp=makefp 
       mult=1 icharg=0 coord=cart icut=11 $end
 $system timlim=99999   mwords=200 $end
 $scf soscf=.f. dirscf=.t. diis=.t. CONV=1.0d-06  $end
 $basis gbasis=n31 ngauss=6 ndfunc=1 $end
 $DAMP IFTTYP(1)=2,0 IFTFIX(1)=1,1 thrsh=500.0 $end
 $MAKEFP  POL=.t. DISP=.f. CHTR=.f.  EXREP=.f. $end
 $data
 v_111
 C1
 C1649   6.0    62.7152586000     91.7272472400     86.0140228300 
 O1650   8.0    62.9322576500     91.7190933200     84.8301696800 
 N1651   7.0    62.0702981900     90.7637786900     86.6915512100 
 H1652   1.0    61.8710231800     90.8897972100     87.6736450200 
 C1653   6.0    61.4736557000     89.5120239300     86.0432815600 
 H1654   1.0    61.1172962200     89.8157692000     85.0589752200 
 C1655   6.0    62.5275707200     88.3316135400     85.9109687800 
 H1656   1.0    62.9360961900     88.0067920700     86.8679046600 
 C1657   6.0    61.9055604900     87.0717430100     85.3038215600 
 H1658   1.0    60.9909153000     86.8288612400     85.8446884200 
 H1659   1.0    62.6222419700     86.2553978000     85.3935623200 
 H1660   1.0    61.7568874400     87.2385406500     84.2369842500 
 C1661   6.0    63.8358593000     88.5182952900     85.1841163600 
 H1662   1.0    63.6640930200     89.0925598100     84.2737388600 
 H1663   1.0    64.2955255500     87.5504207600     84.9840736400 
 H1664   1.0    64.4421386700     89.1449737500     85.8381843600 
  H000    1.0    60.59334067263104  89.19929366440682  86.58289636073326 
  H000    1.0    63.18199921862298  92.49901781776511  86.60602136870051 
 $end 
 $comment Atoms to be erased:  $end

