 $contrl units=angs local=boys runtyp=makefp 
       mult=1 icharg=0 coord=cart icut=11 $end
 $system timlim=99999   mwords=200 $end
 $scf soscf=.f. dirscf=.t. diis=.t. CONV=1.0d-06  $end
 $basis gbasis=n31 ngauss=6 ndfunc=1 $end
 $DAMP IFTTYP(1)=2,0 IFTFIX(1)=1,1 thrsh=500.0 $end
 $MAKEFP  POL=.t. DISP=.f. CHTR=.f.  EXREP=.f. $end
 $data
 v_159
 C1
 C2442   6.0    74.5121669800     99.3539428700     66.9629716900 
 O2443   8.0    73.4735012100     98.8906002000     66.6166305500 
 N2444   7.0    74.6283006700    100.6378936800     67.1537733100 
 H2445   1.0    75.5276918400    101.0677146900     67.3163938500 
 C2446   6.0    73.4104728700    101.4521312700     67.2657585100 
 H2447   1.0    72.7960538900    100.8452034000     67.9307603800 
 C2448   6.0    73.6833715400    102.8467178300     67.8726196300 
 H2449   1.0    74.4883251200    103.3606147800     67.3472023000 
 C2450   6.0    72.4211692800    103.6764049500     67.7160453800 
 H2451   1.0    71.6353988600    102.9478168500     67.9156160400 
 H2452   1.0    72.3932027800    104.1448402400     66.7322301900 
 H2453   1.0    72.3488426200    104.4999313400     68.4264564500 
 C2454   6.0    74.0359449400    102.6351451900     69.3210268000 
 H2455   1.0    73.9581346500    103.5886573800     69.8433923700 
 H2456   1.0    75.0435972200    102.2255039200     69.3912267700 
 H2457   1.0    73.3740663500    101.9281578100     69.8212146800 
  H000    1.0    72.98697878898763  101.54130151843496  66.27750736290149 
  H000    1.0    75.39486675584912  98.7436092925056  67.07375494459568 
 $end 
 $comment Atoms to be erased:  $end

