 $contrl units=angs local=boys runtyp=makefp 
       mult=1 icharg=0 coord=cart icut=11 $end
 $system timlim=99999   mwords=200 $end
 $scf soscf=.f. dirscf=.t. diis=.t. CONV=1.0d-06  $end
 $basis gbasis=n31 ngauss=6 ndfunc=1 $end
 $DAMP IFTTYP(1)=2,0 IFTFIX(1)=1,1 thrsh=500.0 $end
 $MAKEFP  POL=.t. DISP=.f. CHTR=.f.  EXREP=.f. $end
 $data
 v_197
 C1
 C3032   6.0    62.3086977000     96.9093418100     72.8183269500 
 O3033   8.0    62.6964902900     96.4505291000     73.8792800900 
 N3034   7.0    62.8565836000     97.9041099500     72.1476411800 
 H3035   1.0    62.4196052600     98.1274318700     71.2648773200 
 C3036   6.0    63.9583063100     98.7402248400     72.6440382000 
 H3037   1.0    64.3861722900     98.1010627700     73.4163665800 
 C3038   6.0    65.1565647100     98.9461135900     71.5980100600 
 H3039   1.0    64.8961496400     99.7765350300     70.9417486200 
 C3040   6.0    66.2698364300     99.3297672300     72.4980545000 
 H3041   1.0    67.1851635000     99.5194149000     71.9374275200 
 H3042   1.0    66.3800430300     98.5078811600     73.2055044200 
 H3043   1.0    66.0294342000    100.2517414100     73.0274391200 
 C3044   6.0    65.4174089400     97.6649951900     70.7586288500 
 H3045   1.0    65.5039882700     96.8495273600     71.4767122300 
 H3046   1.0    66.3571071600     97.7781295800     70.2180242500 
 H3047   1.0    64.6573400500     97.3241329200     70.0556135200 
  H000    1.0    63.63560869060446  99.67939698390296  73.06565512346626 
  H000    1.0    61.37867821610584  96.54182437225826  72.41343981494508 
 $end 
 $comment Atoms to be erased:  $end

