 $contrl units=angs local=boys runtyp=makefp 
       mult=1 icharg=0 coord=cart icut=11 $end
 $system timlim=99999   mwords=200 $end
 $scf soscf=.f. dirscf=.t. diis=.t. CONV=1.0d-06  $end
 $basis gbasis=n31 ngauss=6 ndfunc=1 $end
 $DAMP IFTTYP(1)=2,0 IFTFIX(1)=1,1 thrsh=500.0 $end
 $MAKEFP  POL=.t. DISP=.f. CHTR=.f.  EXREP=.f. $end
 $data
 v_212
 C1
 C3229   6.0    76.1034250300    102.8678703300     77.2716283800 
 O3230   8.0    76.4764165900    102.0034217800     78.0800581000 
 N3231   7.0    74.8176670100    103.0861759200     76.9852066000 
 H3232   1.0    74.5248508500    103.7645435300     76.2965965300 
 C3233   6.0    73.6579608900    102.6610374500     77.8865671200 
 H3234   1.0    73.9622306800    101.9222736400     78.6280202900 
 C3235   6.0    73.0670070600    103.9482498200     78.5306692100 
 H3236   1.0    72.6770591700    104.5482063300     77.7084207500 
 C3237   6.0    71.8029403700    103.7462329900     79.3619108200 
 H3238   1.0    71.0071086900    103.0511951400     79.0942335100 
 H3239   1.0    71.3378334000    104.7236442600     79.4903230700 
 H3240   1.0    72.0695686300    103.4165954600     80.3660774200 
 C3241   6.0    74.0422105800    104.8527717600     79.3627882000 
 H3242   1.0    73.5619783400    105.8160400400     79.5348024400 
 H3243   1.0    74.9410629300    105.0555038500     78.7805032700 
 H3244   1.0    74.3981075300    104.4284820600     80.3016281100 
  H000    1.0    72.93544213728227  102.13719759149437  77.28035151956398 
  H000    1.0    76.81043710384623  103.53304578759601  76.80086895349045 
 $end 
 $comment Atoms to be erased:  $end

