 $contrl units=angs local=boys runtyp=makefp 
       mult=1 icharg=0 coord=cart icut=11 $end
 $system timlim=99999   mwords=200 $end
 $scf soscf=.f. dirscf=.t. diis=.t. CONV=1.0d-06  $end
 $basis gbasis=n31 ngauss=6 ndfunc=1 $end
 $DAMP IFTTYP(1)=2,0 IFTFIX(1)=1,1 thrsh=500.0 $end
 $MAKEFP  POL=.t. DISP=.f. CHTR=.f.  EXREP=.f. $end
 $data
 v_210
 C1
 C3206   6.0    81.6433334400    106.9162941000     78.8253068900 
 O3207   8.0    82.4524784100    106.0503768900     79.1211366700 
 N3208   7.0    80.3586101500    106.7010974900     78.6732149100 
 H3209   1.0    79.8511552800    107.5552558900     78.4915304200 
 C3210   6.0    79.5677471200    105.5339717900     78.9347410200 
 H3211   1.0    80.2742004400    104.7398471800     78.6931181000 
 C3212   6.0    78.9953184100    105.4904270200     80.3620147700 
 H3213   1.0    78.1751585000    106.2081050900     80.3812980700 
 C3214   6.0    78.4703064000    104.0915107700     80.7248497000 
 H3215   1.0    77.7992963800    104.0570545200     81.5831375100 
 H3216   1.0    79.2336130100    103.3349514000     80.9067726100 
 H3217   1.0    77.8689670600    103.8140583000     79.8591184600 
 C3218   6.0    80.0635528600    105.7896804800     81.4628219600 
 H3219   1.0    80.9202575700    105.1538562800     81.2394523600 
 H3220   1.0    79.6977615400    105.7724380500     82.4894523600 
 H3221   1.0    80.3314685800    106.8358707400     81.3150405900 
  H000    1.0    78.72712622927307  105.45349676270763  78.26331031794972 
  H000    1.0    81.97546009035138  107.90889348704654  78.56381646080379 
 $end 
 $comment Atoms to be erased:  $end

