 $contrl units=angs local=boys runtyp=makefp 
       mult=1 icharg=0 coord=cart icut=11 $end
 $system timlim=99999   mwords=200 $end
 $scf soscf=.f. dirscf=.t. diis=.t. CONV=1.0d-06  $end
 $basis gbasis=n31 ngauss=6 ndfunc=1 $end
 $DAMP IFTTYP(1)=2,0 IFTFIX(1)=1,1 thrsh=500.0 $end
 $MAKEFP  POL=.t. DISP=.f. CHTR=.f.  EXREP=.f. $end
 $data
 v_43
 C1
 C604   6.0    86.3797569300     78.0570793200     88.6071586600 
 O605   8.0    86.4085960400     79.1585445400     87.9899787900 
 N606   7.0    85.4758358000     77.7196121200     89.5337486300 
 H607   1.0    85.4352760300     76.8018245700     89.9534225500 
 C608   6.0    84.1891956300     78.4989357000     89.8784256000 
 H609   1.0    84.3237686200     79.5069599200     89.4861793500 
 C610   6.0    82.9182910900     77.9376030000     89.1055297900 
 H611   1.0    82.6805114700     76.9640541100     89.5342063900 
 C612   6.0    81.7711067200     78.8709259000     89.4067382800 
 H613   1.0    80.8920478800     78.4882926900     88.8881301900 
 H614   1.0    81.9500732400     79.8845958700     89.0481948900 
 H615   1.0    81.7770290400     78.8979435000     90.4963874800 
 C616   6.0    83.1274032600     77.7415657000     87.6066207900 
 H617   1.0    83.8700008400     76.9445705400     87.5683403000 
 H618   1.0    83.5450363200     78.6647796600     87.2049331700 
 H619   1.0    82.1425819400     77.5258636500     87.1922302200 
  H000    1.0    84.05941520664375  78.55155427928948  90.94815791531398 
  H000    1.0    87.13721181846941  77.33167891984074  88.35418583343045 
 $end 
 $comment Atoms to be erased:  $end

