 $contrl units=angs local=boys runtyp=makefp 
       mult=1 icharg=0 coord=cart icut=11 $end
 $system timlim=99999   mwords=200 $end
 $scf soscf=.f. dirscf=.t. diis=.t. CONV=1.0d-06  $end
 $basis gbasis=n31 ngauss=6 ndfunc=1 $end
 $DAMP IFTTYP(1)=2,0 IFTFIX(1)=1,1 thrsh=500.0 $end
 $MAKEFP  POL=.t. DISP=.f. CHTR=.f.  EXREP=.f. $end
 $data
 v_62
 C1
 C911   6.0    81.5607070900     85.1270103500     90.7886695900 
 O912   8.0    81.6862011000     86.2809658100     90.4853630100 
 N913   7.0    82.3866272000     84.1841697700     90.5874252300 
 H914   1.0    82.2288894700     83.3314704900     91.1052322400 
 C915   6.0    83.5947990400     84.2686462400     89.6944999700 
 H916   1.0    83.3181572000     84.9878501900     88.9235687300 
 C917   6.0    84.9236679100     84.7699165300     90.4561615000 
 H918   1.0    84.7734642000     85.8253860500     90.6831169100 
 C919   6.0    85.2923965500     83.9753532400     91.6583252000 
 H920   1.0    84.6816444400     84.1352272000     92.5468826300 
 H921   1.0    86.2856483500     84.3399906200     91.9202613800 
 H922   1.0    85.3213977800     82.8935718500     91.5279007000 
 C923   6.0    86.2191391000     84.8491668700     89.6184349100 
 H924   1.0    86.4519119300     83.8252830500     89.3258667000 
 H925   1.0    87.0097065000     85.2393150300     90.2594566300 
 H926   1.0    86.2081623100     85.4332637800     88.6981964100 
  H000    1.0    83.70353749738216  83.32242256557257  89.18776966161178 
  H000    1.0    80.71508332452582  84.89869791067781  91.4185368592846 
 $end 
 $comment Atoms to be erased:  $end

