 $contrl units=angs local=boys runtyp=makefp 
       mult=1 icharg=0 coord=cart icut=11 $end
 $system timlim=99999   mwords=200 $end
 $scf soscf=.f. dirscf=.t. diis=.t. CONV=1.0d-06  $end
 $basis gbasis=n31 ngauss=6 ndfunc=1 $end
 $DAMP IFTTYP(1)=2,0 IFTFIX(1)=1,1 thrsh=500.0 $end
 $MAKEFP  POL=.t. DISP=.f. CHTR=.f.  EXREP=.f. $end
 $data
 v_67
 C1
 C992   6.0    91.4740371700     77.7006244700     79.1732931100 
 O993   8.0    90.8996200600     76.6347217600     79.4772195800 
 N994   7.0    91.7001438100     78.0597782100     77.8875017200 
 H995   1.0    92.1824550600     78.9265155800     77.6971197100 
 C996   6.0    91.5062904400     77.1506118800     76.6762304300 
 H997   1.0    91.5841865500     76.1460399600     77.0920038200 
 C998   6.0    90.1683235200     77.1865844700     75.9803056700 
 H999   1.0    89.4097423600     77.1582317400     76.7625141100 
 C1000   6.0    89.9591064500     78.5316085800     75.1944351200 
 H1001   1.0    88.9101219200     78.5485267600     74.8987007100 
 H1002   1.0    90.7139778100     78.6566162100     74.4181346900 
 H1003   1.0    89.9731159200     79.3426895100     75.9224796300 
 C1004   6.0    89.8467731500     75.9783172600     75.1027202600 
 H1005   1.0    90.7252121000     75.8696651500     74.4666051900 
 H1006   1.0    88.9821434000     76.3113212600     74.5285892500 
 H1007   1.0    89.5765876800     75.1434707600     75.7493448300 
  H000    1.0    92.34641539822769  77.25051819496129  76.00679209647421 
  H000    1.0    91.86423561710512  78.34189067812386  79.94818776206259 
 $end 
 $comment Atoms to be erased:  $end

