 $contrl units=angs local=boys runtyp=makefp 
       mult=1 icharg=0 coord=cart icut=11 $end
 $system timlim=99999   mwords=200 $end
 $scf soscf=.f. dirscf=.t. diis=.t. CONV=1.0d-06  $end
 $basis gbasis=n31 ngauss=6 ndfunc=1 $end
 $DAMP IFTTYP(1)=2,0 IFTFIX(1)=1,1 thrsh=500.0 $end
 $MAKEFP  POL=.t. DISP=.f. CHTR=.f.  EXREP=.f. $end
 $data
 v_854
 C1
 C15123   6.0    89.3197822600     91.7321586600     69.4959402100 
 O15124   8.0    90.0285339400     91.0499858900     70.2537632000 
 N15125   7.0    88.4490776100     91.2065792100     68.6328411100 
 H15126   1.0    87.8528404200     91.9233703600     68.2445049300 
 C15127   6.0    88.5002899200     89.7769641900     68.3731317500 
 H15128   1.0    88.6914253200     89.2686653100     69.3182230000 
 C15129   6.0    87.1667861900     89.2387008700     67.8362655600 
 H15130   1.0    86.9950294500     89.7088336900     66.8679809600 
 C15131   6.0    87.1294689200     87.6432418800     67.7182054500 
 H15132   1.0    86.6529655500     87.2104930900     68.5978460300 
 H15133   1.0    88.1608581500     87.3038673400     67.6224947000 
 H15134   1.0    86.5699386600     87.4210548400     66.8095445600 
 C15135   6.0    85.9626960800     89.6599865000     68.7379694000 
 H15136   1.0    86.0514831500     89.2148208600     69.7289514500 
 H15137   1.0    85.0284767200     89.3838501000     68.2489824300 
 H15138   1.0    85.8842372900     90.7468414300     68.7641429900 
  H000    1.0    89.34060697270475  89.45978454454543  67.77546694173125 
  H000    1.0    89.46315962262038  92.80139275519264  69.48497293296361 
 $end 
 $comment Atoms to be erased:  $end

