 $contrl units=angs local=boys runtyp=makefp 
       mult=1 icharg=0 coord=cart icut=11 $end
 $system timlim=99999   mwords=200 $end
 $scf soscf=.f. dirscf=.t. diis=.t. CONV=1.0d-06  $end
 $basis gbasis=n31 ngauss=6 ndfunc=1 $end
 $DAMP IFTTYP(1)=2,0 IFTFIX(1)=1,1 thrsh=500.0 $end
 $MAKEFP  POL=.t. DISP=.f. CHTR=.f.  EXREP=.f. $end
 $data
 v_858
 C1
 C15201   6.0    91.5397357900     86.6162395500     70.5812835700 
 O15202   8.0    90.3448009500     86.6272640200     70.8807706800 
 N15203   7.0    92.0683860800     85.6156253800     69.9701404600 
 H15204   1.0    93.0588340800     85.6606864900     69.7775793100 
 C15205   6.0    91.3359737400     84.4528484300     69.3558406800 
 H15206   1.0    90.4125022900     84.3675041200     69.9285793300 
 C15207   6.0    90.8672523500     84.8563098900     67.9151201200 
 H15208   1.0    90.4457569100     85.8615112300     67.9191446300 
 C15209   6.0    92.0762538900     85.0169563300     66.9476270700 
 H15210   1.0    92.8730487800     85.6226539600     67.3793172800 
 H15211   1.0    91.6442394300     85.4126548800     66.0284471500 
 H15212   1.0    92.5437831900     84.0570640600     66.7283058200 
 C15213   6.0    89.8251342800     83.8701534300     67.2563934300 
 H15214   1.0    88.9827823600     83.9108371700     67.9469776200 
 H15215   1.0    90.2285194400     82.8638458300     67.1435594600 
 H15216   1.0    89.4416523000     84.2396354700     66.3053274200 
  H000    1.0    91.86064086094008  83.51025484554353  69.34240020582875 
  H000    1.0    92.20431115154521  87.43389426701997  70.81305771040839 
 $end 
 $comment Atoms to be erased:  $end

