 $contrl units=angs local=boys runtyp=makefp 
       mult=1 icharg=0 coord=cart icut=11 $end
 $system timlim=99999   mwords=200 $end
 $scf soscf=.f. dirscf=.t. diis=.t. CONV=1.0d-06  $end
 $basis gbasis=n31 ngauss=6 ndfunc=1 $end
 $DAMP IFTTYP(1)=2,0 IFTFIX(1)=1,1 thrsh=500.0 $end
 $MAKEFP  POL=.t. DISP=.f. CHTR=.f.  EXREP=.f. $end
 $data
 v_91
 C1
 C1379   6.0    68.6288309100     94.0876388500     90.0480079700 
 O1380   8.0    68.0955267000     94.9202346800     89.3771553000 
 N1381   7.0    69.8338747000     94.2520237000     90.6952667200 
 H1382   1.0    70.0452709200     93.5851287800     91.4237403900 
 C1383   6.0    70.6559276600     95.4600143400     90.5039787300 
 H1384   1.0    70.6603813200     95.6814670600     89.4367218000 
 C1385   6.0    70.1977062200     96.7447185500     91.3523674000 
 H1386   1.0    69.1853094100     96.9841671000     91.0270690900 
 C1387   6.0    70.1947164500     96.6644763900     92.9094505300 
 H1388   1.0    69.6875190700     95.7757568400     93.2850074800 
 H1389   1.0    69.8074674600     97.5842571300     93.3477973900 
 H1390   1.0    71.2207222000     96.5732574500     93.2659530600 
 C1391   6.0    71.0907125500     97.9692745200     91.0619354200 
 H1392   1.0    71.2958622000     98.0369091000     89.9935531600 
 H1393   1.0    72.0687198600     97.9313468900     91.5416908300 
 H1394   1.0    70.5976057100     98.9092922200     91.3095665000 
  H000    1.0    71.68475495005022  95.17215150926141  90.65427276689795 
  H000    1.0    68.03093505785931  93.27456740078158  90.42928774661922 
 $end 
 $comment Atoms to be erased:  $end

