 $contrl units=angs local=boys runtyp=makefp 
       mult=1 icharg=0 coord=cart icut=11 $end
 $system timlim=99999   mwords=200 $end
 $scf soscf=.f. dirscf=.t. diis=.t. CONV=1.0d-06  $end
 $basis gbasis=n31 ngauss=6 ndfunc=1 $end
 $DAMP IFTTYP(1)=2,0 IFTFIX(1)=1,1 thrsh=500.0 $end
 $MAKEFP  POL=.t. DISP=.f. CHTR=.f.  EXREP=.f. $end
 $data
 v_96
 C1
 C1441   6.0    84.2245197300     91.2647438000     84.1957664500 
 O1442   8.0    83.9572238900     90.1887130700     84.6906852700 
 N1443   7.0    84.6671772000     91.4122963000     82.9557991000 
 H1444   1.0    84.8027992200     92.3659896900     82.6521873500 
 C1445   6.0    84.9949741400     90.3153991700     81.9461250300 
 H1446   1.0    84.9756240800     89.3795013400     82.5045394900 
 C1447   6.0    84.0221786500     90.1876068100     80.7967567400 
 H1448   1.0    83.1418228100     89.9704551700     81.4016723600 
 C1449   6.0    83.7412262000     91.4148902900     79.7810411500 
 H1450   1.0    82.8870582600     91.1731338500     79.1485357300 
 H1451   1.0    84.5338630700     91.5147018400     79.0394926100 
 H1452   1.0    83.3840751600     92.3595905300     80.1911544800 
 C1453   6.0    84.1372299200     88.8448238400     80.0068092300 
 H1454   1.0    83.1750679000     88.3920669600     79.7673082400 
 H1455   1.0    84.5541858700     88.1733131400     80.7573700000 
 H1456   1.0    84.7335624700     89.0528106700     79.1184282300 
  H000    1.0    86.00413272286448  90.4237255797953  81.58033377371879 
  H000    1.0    84.06617911976493  92.1569959948973  84.78121770454757 
 $end 
 $comment Atoms to be erased:  $end

