 $contrl units=angs local=boys runtyp=makefp 
       mult=1 icharg=0 coord=cart icut=11 $end
 $system timlim=99999   mwords=200 $end
 $scf soscf=.f. dirscf=.t. diis=.t. CONV=1.0d-06  $end
 $basis gbasis=n31 ngauss=6 ndfunc=1 $end
 $DAMP IFTTYP(1)=2,0 IFTFIX(1)=1,1 thrsh=500.0 $end
 $MAKEFP  POL=.t. DISP=.f. CHTR=.f.  EXREP=.f. $end
 $data
 v_98
 C1
 C1468   6.0    88.7903785700     88.1428527800     79.7474527400 
 O1469   8.0    88.3783531200     87.0622158100     80.0203323400 
 N1470   7.0    89.5878219600     88.2937336000     78.6943864800 
 H1471   1.0    89.8832893400     89.2196178400     78.4195280100 
 C1472   6.0    89.8701095600     87.2748184200     77.7144670500 
 H1473   1.0    90.0652885400     86.4484119400     78.3978891400 
 C1474   6.0    88.7233257300     86.8090629600     76.8529796600 
 H1475   1.0    88.0437278700     86.2095356000     77.4586248400 
 C1476   6.0    87.8948211700     87.9345989200     76.1937332200 
 H1477   1.0    88.3631324800     88.6004829400     75.4689025900 
 H1478   1.0    87.3137950900     88.4681415600     76.9459629100 
 H1479   1.0    87.1537399300     87.4346160900     75.5700874300 
 C1480   6.0    89.2395973200     85.8748722100     75.7725715600 
 H1481   1.0    90.0297164900     85.2023696900     76.1065769200 
 H1482   1.0    89.5616722100     86.4646720900     74.9143838900 
 H1483   1.0    88.4939479800     85.1963233900     75.3582334500 
  H000    1.0    90.74211928015228  87.48364670411814  77.11452647351578 
  H000    1.0    88.57395250200334  88.95542617514019  80.42333966412404 
 $end 
 $comment Atoms to be erased:  $end

